103-TiHfVNbCr                           
   1.00000000000000     
     8.6675730484585873    0.0168723238924160    0.0023944385629986
     0.0226866834794039    8.7010992676372982   -0.0232167522139288
     0.0335831143971483   -0.0379905284470160    8.7068677031171298
   Hf   V    Ti   N    C    Cr   Nb
     7     6     7    13    19     6     6
Direct
  0.9994402773994718  0.0024614164656991  0.9928636072143808
  0.2675764003258311  0.0015190648178600  0.2461453214064507
  0.2424687930040430  0.4938879503667512  0.2469731354792525
  0.4979452108279083  0.5012189789148114  0.0005200537761600
  0.5113843964676168  0.2437954893104476  0.7429562394965289
  0.9997086617190604  0.5002282615720750  0.5048985045039209
  0.4920477295321033  0.7566120460640754  0.7577053272050750
  0.9869836663300134  0.2332010991144462  0.2668867113055929
  0.7658596740752650  0.7411163598298859  0.9994911438369706
  0.0030346441841916  0.2489955335886714  0.7331159030056436
  0.7612082205228987  0.2429520239980296  0.4835766355922734
  0.0023625396471674  0.7407337194010670  0.7570156043016212
  0.2455732183946576  0.4833817104834213  0.7518792994897324
  0.2455203304600278  0.2479634821945725  0.9912390311255008
  0.5094076907077997  0.2564949258271318  0.2522116529913410
  0.7372499537072456  0.9973001098628469  0.2461632952216484
  0.7567709313844351  0.2556081903038043  0.0033283550867679
  0.2425946711939937  0.7482225843297512  0.9955002233144334
  0.2513970042975720  0.2486060016569843  0.5030251251825468
  0.2479708089082041  0.7531551500903160  0.5060231993682142
  0.2489374798871791  0.2469102590336684  0.2485918835573787
  0.2543424957355615  0.0028883503145802  0.9931276327755775
  0.0018706880190825  0.2537055429155637  0.0013754128803606
  0.7519551965467589  0.2460526570154457  0.2479870626908331
  0.7464186951377962  0.9977201089831323  0.0020042220389892
  0.5088595034634485  0.0028054667756776  0.2388875141906694
  0.9958171997139769  0.4914851513421022  0.2467259177058977
  0.4992521086865715  0.7591815231899162  0.0067387411407154
  0.9913954702369153  0.0065796314382844  0.7481657855763669
  0.7616672941140444  0.2456267781809559  0.7503364861697168
  0.7406990835817613  0.0115406421572722  0.4980086559141319
  0.5018569004863020  0.2429017924338396  0.4927686426259304
  0.5157926730643320  0.0003955019545505  0.7509353720387224
  0.9962381686210916  0.0041956240561005  0.2514125187904075
  0.5043596078292910  0.2407940156951457  0.0017903300016764
  0.2546223642600976  0.7488656847653968  0.2488797274347981
  0.2405597209622690  0.4986444049070023  0.9913669369763388
  0.9995588140856386  0.7447855923466573  0.9956901744462185
  0.7412186874838732  0.7530206348084156  0.2436484558174870
  0.7616639845813487  0.5024388984438815  0.0007150500792969
  0.5001755422845445  0.4982151340037236  0.2522158267586300
  0.2458186034368509  0.2487695375382666  0.7479304504405078
  0.2557256616805010  0.0015127972046251  0.5085286752583666
  0.9997397365635671  0.2492241349850576  0.5011560241427558
  0.2366444877282600  0.7559070039176267  0.7525319996118626
  0.2512721020606618  0.4980115353764390  0.5051475335649244
  0.9994886340582402  0.7538329354049048  0.5071636188283264
  0.0061841934604324  0.4970462084726134  0.7586828443542397
  0.7549005635436813  0.7565577874439898  0.7584150186747532
  0.7466787002512851  0.4953840676799158  0.4990501829315608
  0.4927776487310672  0.7618245083533105  0.4946350561305405
  0.4969231288708167  0.4998715546000131  0.7477755011118408
  0.5212397877392051  0.0118657843980848  0.9796066853583362
  0.0026478967256296  0.5121915523541447  0.9830101423592014
  0.4953928758875287  0.7342119278583398  0.2570895359881907
  0.2305851359092593  0.0183153765610365  0.7393805751082991
  0.4841312072478572  0.9872590135328907  0.5298013271222958
  0.7426336203100772  0.9750526176801501  0.7818264802104798
  0.0027580885556034  0.7599776139594809  0.2496896746863852
  0.7498486234055263  0.5042375792838431  0.2509605965744452
  0.0047449694020742  0.0041895485423839  0.5057625145705692
  0.4964525676133314  0.5104891503140901  0.4999275657651459
  0.7540393113592637  0.5075288019716431  0.7523409068197966
  0.7456063295878569  0.7605312206131862  0.4966965078729818
 
  0.00000000E+00  0.00000000E+00  0.00000000E+00
  0.00000000E+00  0.00000000E+00  0.00000000E+00
  0.00000000E+00  0.00000000E+00  0.00000000E+00
  0.00000000E+00  0.00000000E+00  0.00000000E+00
  0.00000000E+00  0.00000000E+00  0.00000000E+00
  0.00000000E+00  0.00000000E+00  0.00000000E+00
  0.00000000E+00  0.00000000E+00  0.00000000E+00
  0.00000000E+00  0.00000000E+00  0.00000000E+00
  0.00000000E+00  0.00000000E+00  0.00000000E+00
  0.00000000E+00  0.00000000E+00  0.00000000E+00
  0.00000000E+00  0.00000000E+00  0.00000000E+00
  0.00000000E+00  0.00000000E+00  0.00000000E+00
  0.00000000E+00  0.00000000E+00  0.00000000E+00
  0.00000000E+00  0.00000000E+00  0.00000000E+00
  0.00000000E+00  0.00000000E+00  0.00000000E+00
  0.00000000E+00  0.00000000E+00  0.00000000E+00
  0.00000000E+00  0.00000000E+00  0.00000000E+00
  0.00000000E+00  0.00000000E+00  0.00000000E+00
  0.00000000E+00  0.00000000E+00  0.00000000E+00
  0.00000000E+00  0.00000000E+00  0.00000000E+00
  0.00000000E+00  0.00000000E+00  0.00000000E+00
  0.00000000E+00  0.00000000E+00  0.00000000E+00
  0.00000000E+00  0.00000000E+00  0.00000000E+00
  0.00000000E+00  0.00000000E+00  0.00000000E+00
  0.00000000E+00  0.00000000E+00  0.00000000E+00
  0.00000000E+00  0.00000000E+00  0.00000000E+00
  0.00000000E+00  0.00000000E+00  0.00000000E+00
  0.00000000E+00  0.00000000E+00  0.00000000E+00
  0.00000000E+00  0.00000000E+00  0.00000000E+00
  0.00000000E+00  0.00000000E+00  0.00000000E+00
  0.00000000E+00  0.00000000E+00  0.00000000E+00
  0.00000000E+00  0.00000000E+00  0.00000000E+00
  0.00000000E+00  0.00000000E+00  0.00000000E+00
  0.00000000E+00  0.00000000E+00  0.00000000E+00
  0.00000000E+00  0.00000000E+00  0.00000000E+00
  0.00000000E+00  0.00000000E+00  0.00000000E+00
  0.00000000E+00  0.00000000E+00  0.00000000E+00
  0.00000000E+00  0.00000000E+00  0.00000000E+00
  0.00000000E+00  0.00000000E+00  0.00000000E+00
  0.00000000E+00  0.00000000E+00  0.00000000E+00
  0.00000000E+00  0.00000000E+00  0.00000000E+00
  0.00000000E+00  0.00000000E+00  0.00000000E+00
  0.00000000E+00  0.00000000E+00  0.00000000E+00
  0.00000000E+00  0.00000000E+00  0.00000000E+00
  0.00000000E+00  0.00000000E+00  0.00000000E+00
  0.00000000E+00  0.00000000E+00  0.00000000E+00
  0.00000000E+00  0.00000000E+00  0.00000000E+00
  0.00000000E+00  0.00000000E+00  0.00000000E+00
  0.00000000E+00  0.00000000E+00  0.00000000E+00
  0.00000000E+00  0.00000000E+00  0.00000000E+00
  0.00000000E+00  0.00000000E+00  0.00000000E+00
  0.00000000E+00  0.00000000E+00  0.00000000E+00
  0.00000000E+00  0.00000000E+00  0.00000000E+00
  0.00000000E+00  0.00000000E+00  0.00000000E+00
  0.00000000E+00  0.00000000E+00  0.00000000E+00
  0.00000000E+00  0.00000000E+00  0.00000000E+00
  0.00000000E+00  0.00000000E+00  0.00000000E+00
  0.00000000E+00  0.00000000E+00  0.00000000E+00
  0.00000000E+00  0.00000000E+00  0.00000000E+00
  0.00000000E+00  0.00000000E+00  0.00000000E+00
  0.00000000E+00  0.00000000E+00  0.00000000E+00
  0.00000000E+00  0.00000000E+00  0.00000000E+00
  0.00000000E+00  0.00000000E+00  0.00000000E+00
  0.00000000E+00  0.00000000E+00  0.00000000E+00
