108-ZrHfVTaCr                           
   1.00000000000000     
     8.8395464084348383    0.0151255896511207   -0.0123493390966534
     0.0206983725736911    8.9218536958801860   -0.0415380951932326
     0.0194507551858811   -0.0569263568311945    8.8776968459293482
  Hf              V               Zr              N               C               Cr              Ta            
     7     6     7    13    19     6     6
Direct
  0.9961364007231323  0.9966153942057130  0.9902116193261098
  0.2563462690407938  0.9984105624494429  0.2567674938169242
  0.2430575554396298  0.4986471711863439  0.2454851242841136
  0.4986231437931404  0.5006067469636371  0.9968618242260029
  0.5102804171592958  0.2384053381873046  0.7418485378119508
  0.0007450259718491  0.5005971128837908  0.5052154228871525
  0.4984592749312567  0.7604107130825388  0.7543892542824565
  0.9875923023415530  0.2309213717146692  0.2728776113696178
  0.7615687591295676  0.7394038668353569  0.9979521505647079
  0.0010139665642034  0.2506371641398925  0.7243293675801795
  0.7584709709654954  0.2693520804659267  0.4983732314377536
  0.0009261614721116  0.7359581427883598  0.7614641688861803
  0.2427361249361081  0.4809527427341471  0.7555092769707857
  0.2427244799712877  0.2441509400205802  0.9963526821787102
  0.5079107602806987  0.2462089068054830  0.2500814357406873
  0.7412017561376872  0.9945508755024006  0.2562238053826524
  0.7602890570129009  0.2557464213696096  0.9925704395164314
  0.2535399679442731  0.7563336738990708  0.9985285695942473
  0.2531412123345376  0.2491474027813956  0.5003535517247137
  0.2458193462688206  0.7512780798253962  0.5071398790002399
  0.2450542648796918  0.2476220252455060  0.2491454903598154
  0.2475091254593025  0.0013729326010505  0.9990990284202750
  0.0005375016574819  0.2436056113288121  0.0068802994678187
  0.7603710458500923  0.2527235719989097  0.2557613826876103
  0.7467478563884016  0.9919617751621793  0.9952817409902200
  0.4957881873065471  0.9907047196342875  0.2486643349560003
  0.9952488269230433  0.4978817923130937  0.2492030687390266
  0.5108678085253385  0.7589060929818336  0.0015560792422368
  0.9811622367503641  0.0133305102891852  0.7475408993931900
  0.7589496920511216  0.2586476604571837  0.7389423721922943
  0.7445786065171940  0.9976742224019967  0.5103293422872194
  0.5118672090139444  0.2563893952014804  0.4993375655869109
  0.5258791695320573  0.9992340937821196  0.7394083904504484
  0.9981305592335248  0.0009838427315627  0.2529248290809742
  0.5048240837266805  0.2414095192453989  0.9934558297977004
  0.2497394309144653  0.7491464759484660  0.2515256505686448
  0.2421815042829339  0.5005501375713370  0.9918013734745097
  0.9947088982559810  0.7451066878438570  0.9981327466497729
  0.7443600382312907  0.7449768566726679  0.2473241596294334
  0.7616470826297715  0.5097173057322868  0.9997935363245682
  0.5038354508695565  0.5058048993677572  0.2523828973103074
  0.2420523575654935  0.2465390872409403  0.7479227750979420
  0.2557477850804110  0.0000549023906024  0.5138710463930333
  0.9926068416483056  0.2486616401621367  0.5009712342801516
  0.2360513379600551  0.7644151009768583  0.7535322118609230
  0.2529799634431496  0.4988844447489156  0.5037751375415636
  0.9915447216381835  0.7541708961533948  0.5069470244033107
  0.0050648552222617  0.4977990631619961  0.7593411888589756
  0.7570473815236596  0.7531889898075174  0.7576990872145933
  0.7487002670378954  0.4995034926057322  0.4991610926721963
  0.5017072479961804  0.7539340269962219  0.4980919248052767
  0.5008216850257889  0.5005356481011682  0.7459591498110523
  0.5281401473793984  0.0105329436198354  0.9707838411652875
  0.0058043257894543  0.5213035950369624  0.9818779623142412
  0.4985433469555142  0.7534638596531097  0.2640742389728202
  0.2146210648772175  0.0164111801825527  0.7364305439805379
  0.4908015727808036  0.9719488897012155  0.4928628143192935
  0.7427944001129513  0.9663402451008138  0.7741078866031789
  0.9997799909872092  0.7595243058287613  0.2483229958448501
  0.7508989979180721  0.5062939394977093  0.2484846541908951
  0.9973087114284043  0.0032449894009223  0.5094174243421986
  0.4979167082886356  0.5092935032508478  0.5022073856169342
  0.7544956965174490  0.5094159262330253  0.7524056782775100
  0.7499994374063510  0.7484542447967056  0.5007263732426533
 
  0.00000000E+00  0.00000000E+00  0.00000000E+00
  0.00000000E+00  0.00000000E+00  0.00000000E+00
  0.00000000E+00  0.00000000E+00  0.00000000E+00
  0.00000000E+00  0.00000000E+00  0.00000000E+00
  0.00000000E+00  0.00000000E+00  0.00000000E+00
  0.00000000E+00  0.00000000E+00  0.00000000E+00
  0.00000000E+00  0.00000000E+00  0.00000000E+00
  0.00000000E+00  0.00000000E+00  0.00000000E+00
  0.00000000E+00  0.00000000E+00  0.00000000E+00
  0.00000000E+00  0.00000000E+00  0.00000000E+00
  0.00000000E+00  0.00000000E+00  0.00000000E+00
  0.00000000E+00  0.00000000E+00  0.00000000E+00
  0.00000000E+00  0.00000000E+00  0.00000000E+00
  0.00000000E+00  0.00000000E+00  0.00000000E+00
  0.00000000E+00  0.00000000E+00  0.00000000E+00
  0.00000000E+00  0.00000000E+00  0.00000000E+00
  0.00000000E+00  0.00000000E+00  0.00000000E+00
  0.00000000E+00  0.00000000E+00  0.00000000E+00
  0.00000000E+00  0.00000000E+00  0.00000000E+00
  0.00000000E+00  0.00000000E+00  0.00000000E+00
  0.00000000E+00  0.00000000E+00  0.00000000E+00
  0.00000000E+00  0.00000000E+00  0.00000000E+00
  0.00000000E+00  0.00000000E+00  0.00000000E+00
  0.00000000E+00  0.00000000E+00  0.00000000E+00
  0.00000000E+00  0.00000000E+00  0.00000000E+00
  0.00000000E+00  0.00000000E+00  0.00000000E+00
  0.00000000E+00  0.00000000E+00  0.00000000E+00
  0.00000000E+00  0.00000000E+00  0.00000000E+00
  0.00000000E+00  0.00000000E+00  0.00000000E+00
  0.00000000E+00  0.00000000E+00  0.00000000E+00
  0.00000000E+00  0.00000000E+00  0.00000000E+00
  0.00000000E+00  0.00000000E+00  0.00000000E+00
  0.00000000E+00  0.00000000E+00  0.00000000E+00
  0.00000000E+00  0.00000000E+00  0.00000000E+00
  0.00000000E+00  0.00000000E+00  0.00000000E+00
  0.00000000E+00  0.00000000E+00  0.00000000E+00
  0.00000000E+00  0.00000000E+00  0.00000000E+00
  0.00000000E+00  0.00000000E+00  0.00000000E+00
  0.00000000E+00  0.00000000E+00  0.00000000E+00
  0.00000000E+00  0.00000000E+00  0.00000000E+00
  0.00000000E+00  0.00000000E+00  0.00000000E+00
  0.00000000E+00  0.00000000E+00  0.00000000E+00
  0.00000000E+00  0.00000000E+00  0.00000000E+00
  0.00000000E+00  0.00000000E+00  0.00000000E+00
  0.00000000E+00  0.00000000E+00  0.00000000E+00
  0.00000000E+00  0.00000000E+00  0.00000000E+00
  0.00000000E+00  0.00000000E+00  0.00000000E+00
  0.00000000E+00  0.00000000E+00  0.00000000E+00
  0.00000000E+00  0.00000000E+00  0.00000000E+00
  0.00000000E+00  0.00000000E+00  0.00000000E+00
  0.00000000E+00  0.00000000E+00  0.00000000E+00
  0.00000000E+00  0.00000000E+00  0.00000000E+00
  0.00000000E+00  0.00000000E+00  0.00000000E+00
  0.00000000E+00  0.00000000E+00  0.00000000E+00
  0.00000000E+00  0.00000000E+00  0.00000000E+00
  0.00000000E+00  0.00000000E+00  0.00000000E+00
  0.00000000E+00  0.00000000E+00  0.00000000E+00
  0.00000000E+00  0.00000000E+00  0.00000000E+00
  0.00000000E+00  0.00000000E+00  0.00000000E+00
  0.00000000E+00  0.00000000E+00  0.00000000E+00
  0.00000000E+00  0.00000000E+00  0.00000000E+00
  0.00000000E+00  0.00000000E+00  0.00000000E+00
  0.00000000E+00  0.00000000E+00  0.00000000E+00
  0.00000000E+00  0.00000000E+00  0.00000000E+00
