50-ZrNbTaMoW                            
   1.00000000000000     
     8.9473374497277440    0.0081272498730431    0.0092627151608766
     0.0140773826518630    8.9736964202052558   -0.0040961500226540
     0.0414353042796423   -0.0196107917065019    8.9663289364563070
  Zr              Ta              Nb              N               C               W               Mo            
     7     6     7    13    19     6     6
Direct
  0.0013726301032261  0.9998733657037073  0.9971964647226942
  0.2564782132419013  0.0005478781543633  0.2472342413998687
  0.2471355120540740  0.4972503117218514  0.2507622069368192
  0.5041207966553558  0.4984427741927446  0.9990922164441670
  0.5010279693478963  0.2473579887298486  0.7441897148547518
  0.9968586020059595  0.5045367881382293  0.4995075309359177
  0.4981017988061030  0.7568048840543815  0.7525973120015688
  0.9927275588852137  0.2380340119655271  0.2597516439937135
  0.7622105962974510  0.7422609331914606  0.0068572725821199
  0.0000061148804151  0.2607984180750513  0.7450879376315968
  0.7530985927355121  0.2563115119635401  0.4954129651860557
  0.9988023358258383  0.7448067785268814  0.7496903512295073
  0.2545767316867019  0.5001381514010252  0.7448452183032319
  0.2544883972621048  0.2602383588688160  0.9906854372934395
  0.5107087577071565  0.2518566059355704  0.2441150442728615
  0.7449615971008260  0.9867521669616680  0.2747937816065635
  0.7397044403320385  0.2425091359673786  0.9932632184059511
  0.2365925727746653  0.7395587509463646  0.0024405905017108
  0.2384218672742900  0.2457971077831012  0.5055030174395333
  0.2466464904594447  0.7562795728769890  0.4994285882852161
  0.2453628766792540  0.2484085851273433  0.2472018676683495
  0.2620249319124970  0.9996277522942543  0.9887403476429826
  0.9977692283380593  0.2528827700325846  0.0006126450873566
  0.7540052117703132  0.2442921561131486  0.2488533127216775
  0.7496990234179419  0.9886756505124910  0.0213682353577634
  0.5047523722832847  0.9879867646238266  0.2307658761114782
  0.9951317100864767  0.4846356922775999  0.2441323824724721
  0.5055353846125775  0.7597767125885434  0.0076665710581997
  0.9850731346327732  0.0045920503864643  0.7429346288551943
  0.7550242910966413  0.2460187543353491  0.7450542511855054
  0.7445536115575583  0.0084883883214557  0.5295979358048664
  0.5056655458744821  0.2350400894673271  0.4922508536248211
  0.4914894085939009  0.0016586092161566  0.7378698278373398
  0.9974942753487490  0.0042936936700056  0.2549493304870529
  0.4962432811853507  0.2484656086501371  0.9971905560708552
  0.2537663905473283  0.7495111029370348  0.2488444212974937
  0.2454808590647572  0.4988149942787188  0.9944598268731912
  0.9973478484955449  0.7439869737965170  0.0053844820163271
  0.7542228964589219  0.7388771269413323  0.2510731568920762
  0.7597282000350540  0.4932091602325826  0.0119460134701197
  0.4967317861249853  0.4994360513304791  0.2533043151158949
  0.2446257901368924  0.2510518256834598  0.7490077962619845
  0.2688213789516514  0.0014960736130973  0.5042315833372278
  0.9944965840979527  0.2485209524093753  0.5022110774846960
  0.2423633808285830  0.7555241419512810  0.7523921146819544
  0.2568130346777830  0.4998877414447499  0.5028945422910903
  0.9946362932274723  0.7615660702344502  0.5034743706474436
  0.0027800376293701  0.5028700366810278  0.7490566560098708
  0.7524245422424543  0.7548025291009960  0.7520022175271035
  0.7428399126221118  0.4980214289558788  0.5085141165338921
  0.5005673597982258  0.7532933177541741  0.4975713140060427
  0.5023352516079648  0.5032981387536382  0.7417200134377414
  0.5210028690818825  0.0135539707299110  0.9815441878317194
  0.9977741032076635  0.5049003150821247  0.9837544090245351
  0.4988523096452352  0.7402117103871890  0.2587696766991616
  0.2328891281943057  0.0054539107185429  0.7379897084992413
  0.5131043804741919  0.9871838982757151  0.4751122864421187
  0.7371780517287163  0.9869291117819198  0.7742288332065336
  0.0023364444404087  0.7770135188022896  0.2603567176684556
  0.7293203854700485  0.5062186049088044  0.2619077235145976
  0.0220131273976825  0.0024429888185469  0.4974470447736671
  0.5044443227052494  0.5235389364401379  0.4916204819553263
  0.7533898390136720  0.5171893289119213  0.7655449594077146
  0.7498480052678385  0.7361970172689227  0.4919927130795934
 
  0.00000000E+00  0.00000000E+00  0.00000000E+00
  0.00000000E+00  0.00000000E+00  0.00000000E+00
  0.00000000E+00  0.00000000E+00  0.00000000E+00
  0.00000000E+00  0.00000000E+00  0.00000000E+00
  0.00000000E+00  0.00000000E+00  0.00000000E+00
  0.00000000E+00  0.00000000E+00  0.00000000E+00
  0.00000000E+00  0.00000000E+00  0.00000000E+00
  0.00000000E+00  0.00000000E+00  0.00000000E+00
  0.00000000E+00  0.00000000E+00  0.00000000E+00
  0.00000000E+00  0.00000000E+00  0.00000000E+00
  0.00000000E+00  0.00000000E+00  0.00000000E+00
  0.00000000E+00  0.00000000E+00  0.00000000E+00
  0.00000000E+00  0.00000000E+00  0.00000000E+00
  0.00000000E+00  0.00000000E+00  0.00000000E+00
  0.00000000E+00  0.00000000E+00  0.00000000E+00
  0.00000000E+00  0.00000000E+00  0.00000000E+00
  0.00000000E+00  0.00000000E+00  0.00000000E+00
  0.00000000E+00  0.00000000E+00  0.00000000E+00
  0.00000000E+00  0.00000000E+00  0.00000000E+00
  0.00000000E+00  0.00000000E+00  0.00000000E+00
  0.00000000E+00  0.00000000E+00  0.00000000E+00
  0.00000000E+00  0.00000000E+00  0.00000000E+00
  0.00000000E+00  0.00000000E+00  0.00000000E+00
  0.00000000E+00  0.00000000E+00  0.00000000E+00
  0.00000000E+00  0.00000000E+00  0.00000000E+00
  0.00000000E+00  0.00000000E+00  0.00000000E+00
  0.00000000E+00  0.00000000E+00  0.00000000E+00
  0.00000000E+00  0.00000000E+00  0.00000000E+00
  0.00000000E+00  0.00000000E+00  0.00000000E+00
  0.00000000E+00  0.00000000E+00  0.00000000E+00
  0.00000000E+00  0.00000000E+00  0.00000000E+00
  0.00000000E+00  0.00000000E+00  0.00000000E+00
  0.00000000E+00  0.00000000E+00  0.00000000E+00
  0.00000000E+00  0.00000000E+00  0.00000000E+00
  0.00000000E+00  0.00000000E+00  0.00000000E+00
  0.00000000E+00  0.00000000E+00  0.00000000E+00
  0.00000000E+00  0.00000000E+00  0.00000000E+00
  0.00000000E+00  0.00000000E+00  0.00000000E+00
  0.00000000E+00  0.00000000E+00  0.00000000E+00
  0.00000000E+00  0.00000000E+00  0.00000000E+00
  0.00000000E+00  0.00000000E+00  0.00000000E+00
  0.00000000E+00  0.00000000E+00  0.00000000E+00
  0.00000000E+00  0.00000000E+00  0.00000000E+00
  0.00000000E+00  0.00000000E+00  0.00000000E+00
  0.00000000E+00  0.00000000E+00  0.00000000E+00
  0.00000000E+00  0.00000000E+00  0.00000000E+00
  0.00000000E+00  0.00000000E+00  0.00000000E+00
  0.00000000E+00  0.00000000E+00  0.00000000E+00
  0.00000000E+00  0.00000000E+00  0.00000000E+00
  0.00000000E+00  0.00000000E+00  0.00000000E+00
  0.00000000E+00  0.00000000E+00  0.00000000E+00
  0.00000000E+00  0.00000000E+00  0.00000000E+00
  0.00000000E+00  0.00000000E+00  0.00000000E+00
  0.00000000E+00  0.00000000E+00  0.00000000E+00
  0.00000000E+00  0.00000000E+00  0.00000000E+00
  0.00000000E+00  0.00000000E+00  0.00000000E+00
  0.00000000E+00  0.00000000E+00  0.00000000E+00
  0.00000000E+00  0.00000000E+00  0.00000000E+00
  0.00000000E+00  0.00000000E+00  0.00000000E+00
  0.00000000E+00  0.00000000E+00  0.00000000E+00
  0.00000000E+00  0.00000000E+00  0.00000000E+00
  0.00000000E+00  0.00000000E+00  0.00000000E+00
  0.00000000E+00  0.00000000E+00  0.00000000E+00
  0.00000000E+00  0.00000000E+00  0.00000000E+00
