58-TiZrHfCrW                            
   1.00000000000000     
     8.8689091488084166    0.0201832188122511   -0.0135639840351601
     0.0266994287709718    8.8747266025967537    0.0050998188317758
     0.0182950223028033   -0.0097385253630348    8.8543901837206302
  Zr              Hf              Ti              N               C               Cr              W             
     7     6     7    13    19     6     6
Direct
  0.0000994012688127  0.9935984260935692  0.0002657234006005
  0.2695737918666718  0.0016896727120253  0.2419515425590453
  0.2482705076322689  0.4953476561252326  0.2470930249162193
  0.4984281803661970  0.4984973151000929  0.0005614959588790
  0.5029930211902919  0.2476709258928881  0.7437965008387156
  0.9971242251820979  0.4999406368750534  0.5023343576722178
  0.4973015846526712  0.7593943661460961  0.7469459252767330
  0.9962551946271817  0.2471733687420063  0.2425756894381093
  0.7434430570674154  0.7535259885055363  0.0098768592816457
  0.9973994576858758  0.2449168744676865  0.7563887324800764
  0.7478613586986330  0.2389955066170678  0.5013512026117287
  0.0002519463382752  0.7594144251007363  0.7458061947494911
  0.2494159486277819  0.4998601486471302  0.7498562714281702
  0.2614146716683016  0.2397243780806606  0.9901526767180088
  0.5053131407684156  0.2535480008395369  0.2521845348665731
  0.7315021734360921  0.9865370089325064  0.2655170460475759
  0.7384157518275060  0.2400567911891421  0.9997484534879383
  0.2513182032517539  0.7497255668068118  0.9953783597558528
  0.2530765378485982  0.2451246052575093  0.5068051104048205
  0.2527898793197056  0.7522956538375517  0.5009978042837918
  0.2528828759329582  0.2477987394352394  0.2468533165157161
  0.2625665876746676  0.9998565132776258  0.9895431379527539
  0.9972219082583512  0.2494280100309763  0.9989821630539548
  0.7461390863983340  0.2438454631925897  0.2475561148974455
  0.7388861548091270  0.0024531708031610  0.0016283069533760
  0.5117880121513126  0.0054529510358580  0.2831278584222275
  0.9921160764227180  0.5026626905339552  0.2426382284089522
  0.4940766874544424  0.7641997161047579  0.0063084100656540
  0.9977359676179128  0.0032956118706108  0.7416364205594879
  0.7531911092505961  0.2462805171175368  0.7531960877852445
  0.7664548491022242  0.9955990055081937  0.4949865891899371
  0.4990480529900254  0.2463006644664842  0.4916698106547519
  0.5201845957936199  0.0029047257654872  0.7386323512792408
  0.0001947859975670  0.9972550355210231  0.2541119711946658
  0.5010298490370700  0.2377026635490697  0.0042755563499820
  0.2546672882856161  0.7492857311472312  0.2486603651304567
  0.2381134019931374  0.4999781518855649  0.9967690977096358
  0.0030651963317831  0.7407581119779012  0.0046155672874358
  0.7452124538874579  0.7487638609552055  0.2567537776635749
  0.7615902981177571  0.4946988328783471  0.0044946219765947
  0.5019185216546524  0.4997384362508093  0.2546223985687778
  0.2485944863030141  0.2432744939191927  0.7485785082559044
  0.2544372859490046  0.0000001776674456  0.5091177134332964
  0.0039559375376659  0.2440936752572712  0.4994682261146451
  0.2468950711141636  0.7597392876983911  0.7506979014141396
  0.2574959005686015  0.5002313584728507  0.4999334247566226
  0.9984261807593735  0.7586766654547481  0.4945883101429936
  0.9951265735147660  0.5026745500719404  0.7609474468018931
  0.7506143899153747  0.7550863869447262  0.7484872039701534
  0.7438213536975298  0.4973607006491130  0.5035243415852561
  0.4988349698212048  0.7664937981145781  0.4863634511852215
  0.5064446734962239  0.5033740607398808  0.7417657868767967
  0.5101323884441937  0.0121335195758191  0.9601844741851260
  0.0011269211680842  0.5189263992410689  0.9851594838878110
  0.4776188720507646  0.7313587838838449  0.2581479725414976
  0.2418212820635696  0.0050150409571459  0.7553027508931331
  0.4648932336146795  0.9962807409184703  0.5196936547210379
  0.7371460944655762  0.9759850038350019  0.7729396035861126
  0.0203603996196347  0.7594396227524263  0.2546962184846162
  0.7383224511042090  0.5060449681802545  0.2516715491746319
  0.0237498716682526  0.0021042060989165  0.4920962937325065
  0.5033372209298900  0.5193204355173159  0.4931279994979845
  0.7534077160968303  0.5181574665114314  0.7619480132107898
  0.7431053096114169  0.7389324892616823  0.4909101497518127
 
  0.00000000E+00  0.00000000E+00  0.00000000E+00
  0.00000000E+00  0.00000000E+00  0.00000000E+00
  0.00000000E+00  0.00000000E+00  0.00000000E+00
  0.00000000E+00  0.00000000E+00  0.00000000E+00
  0.00000000E+00  0.00000000E+00  0.00000000E+00
  0.00000000E+00  0.00000000E+00  0.00000000E+00
  0.00000000E+00  0.00000000E+00  0.00000000E+00
  0.00000000E+00  0.00000000E+00  0.00000000E+00
  0.00000000E+00  0.00000000E+00  0.00000000E+00
  0.00000000E+00  0.00000000E+00  0.00000000E+00
  0.00000000E+00  0.00000000E+00  0.00000000E+00
  0.00000000E+00  0.00000000E+00  0.00000000E+00
  0.00000000E+00  0.00000000E+00  0.00000000E+00
  0.00000000E+00  0.00000000E+00  0.00000000E+00
  0.00000000E+00  0.00000000E+00  0.00000000E+00
  0.00000000E+00  0.00000000E+00  0.00000000E+00
  0.00000000E+00  0.00000000E+00  0.00000000E+00
  0.00000000E+00  0.00000000E+00  0.00000000E+00
  0.00000000E+00  0.00000000E+00  0.00000000E+00
  0.00000000E+00  0.00000000E+00  0.00000000E+00
  0.00000000E+00  0.00000000E+00  0.00000000E+00
  0.00000000E+00  0.00000000E+00  0.00000000E+00
  0.00000000E+00  0.00000000E+00  0.00000000E+00
  0.00000000E+00  0.00000000E+00  0.00000000E+00
  0.00000000E+00  0.00000000E+00  0.00000000E+00
  0.00000000E+00  0.00000000E+00  0.00000000E+00
  0.00000000E+00  0.00000000E+00  0.00000000E+00
  0.00000000E+00  0.00000000E+00  0.00000000E+00
  0.00000000E+00  0.00000000E+00  0.00000000E+00
  0.00000000E+00  0.00000000E+00  0.00000000E+00
  0.00000000E+00  0.00000000E+00  0.00000000E+00
  0.00000000E+00  0.00000000E+00  0.00000000E+00
  0.00000000E+00  0.00000000E+00  0.00000000E+00
  0.00000000E+00  0.00000000E+00  0.00000000E+00
  0.00000000E+00  0.00000000E+00  0.00000000E+00
  0.00000000E+00  0.00000000E+00  0.00000000E+00
  0.00000000E+00  0.00000000E+00  0.00000000E+00
  0.00000000E+00  0.00000000E+00  0.00000000E+00
  0.00000000E+00  0.00000000E+00  0.00000000E+00
  0.00000000E+00  0.00000000E+00  0.00000000E+00
  0.00000000E+00  0.00000000E+00  0.00000000E+00
  0.00000000E+00  0.00000000E+00  0.00000000E+00
  0.00000000E+00  0.00000000E+00  0.00000000E+00
  0.00000000E+00  0.00000000E+00  0.00000000E+00
  0.00000000E+00  0.00000000E+00  0.00000000E+00
  0.00000000E+00  0.00000000E+00  0.00000000E+00
  0.00000000E+00  0.00000000E+00  0.00000000E+00
  0.00000000E+00  0.00000000E+00  0.00000000E+00
  0.00000000E+00  0.00000000E+00  0.00000000E+00
  0.00000000E+00  0.00000000E+00  0.00000000E+00
  0.00000000E+00  0.00000000E+00  0.00000000E+00
  0.00000000E+00  0.00000000E+00  0.00000000E+00
  0.00000000E+00  0.00000000E+00  0.00000000E+00
  0.00000000E+00  0.00000000E+00  0.00000000E+00
  0.00000000E+00  0.00000000E+00  0.00000000E+00
  0.00000000E+00  0.00000000E+00  0.00000000E+00
  0.00000000E+00  0.00000000E+00  0.00000000E+00
  0.00000000E+00  0.00000000E+00  0.00000000E+00
  0.00000000E+00  0.00000000E+00  0.00000000E+00
  0.00000000E+00  0.00000000E+00  0.00000000E+00
  0.00000000E+00  0.00000000E+00  0.00000000E+00
  0.00000000E+00  0.00000000E+00  0.00000000E+00
  0.00000000E+00  0.00000000E+00  0.00000000E+00
  0.00000000E+00  0.00000000E+00  0.00000000E+00
