Nb
1.0
        3.3006000519         0.0000000000         0.0000000000
        0.0000000000         3.3006000519         0.0000000000
        0.0000000000         0.0000000000         3.3006000519
   Nb
    2
Direct
     0.000000000         0.000000000         0.000000000
     0.500000000         0.500000000         0.500000000
