90-HfVNbCrW                             
   1.00000000000000     
     8.7247188025860680   -0.0114238278446388   -0.0081885648248740
    -0.0057411681705229    8.7388707517680704    0.0082747750517651
     0.0232203901206789   -0.0069642748829913    8.7645735128821265
   V    Nb   Hf   N    C    Cr   W 
     7     6     7    13    19     6     6
Direct
  0.0052421403809948  0.9807355516360868  0.0253182253190373
  0.2326125636953633  0.9818442761037760  0.2490859499683944
  0.2718092855365445  0.5168231595375442  0.2441672104927496
  0.4988988706827941  0.4778484501005735  0.9914019508636599
  0.4788223966719167  0.2381593535335534  0.7576871080714445
  0.0049273012613472  0.4959723288870910  0.5273124535516138
  0.5053676075969047  0.7544231581094356  0.7344422119992174
 -0.0030488791985160  0.2638847636601371  0.2580608787831445
  0.7454384337091978  0.7505878536101857 -0.0026107965541198
  0.0111419550320585  0.2378954045626117  0.7442047034917870
  0.7512903448314191  0.2594309686177553  0.5124259632146488
  0.0009919173653580  0.7583175945354486  0.7504316227053912
  0.2541347727687239  0.5044381754673962  0.7550698754259191
  0.2411217158049888  0.2444751711513427  0.0030155308095271
  0.4943037626074276  0.2398406064566082  0.2477185282462296
  0.7396738115269613  0.9902742887998123  0.2570387417041721
  0.7548542135902455  0.2473049676349859  0.9894479273129415
  0.2705502116969044  0.7584817347253741 -0.0011565777483336
  0.2525252856785731  0.2521961056506615  0.4981303820382627
  0.2502545973054688  0.7511369307852914  0.4988636644243949
  0.2465397509347645  0.2524350084076050  0.2499030991408766
  0.2443741528747434  0.0005310742792178 -0.0001307821533354
 -0.0015818915518712  0.2383142946065753  0.0026133890482258
  0.7458178150975957  0.2467998174793298  0.2504554637906069
  0.7550593657146528  0.9973689901025629 -0.0035866997697011
  0.4954081616680128  0.9959904632208831  0.2247549433391712
  0.9953410165798652  0.5017861064512793  0.2452193991612282
  0.5097764084401217  0.7562345024181784 -0.0157882551920493
  0.0038469180900225  0.0003957335594741  0.7473209712695801
  0.7472701661851631  0.2462752077019778  0.7477745382308937
  0.7543745391699432  0.0013173229182673  0.5052486792850805
  0.5031235859934335  0.2459829641321199  0.5054970357548767
  0.5052757947575857  0.0029423576186419  0.7535163568613692
 -0.0017793918018502  0.0021133337979044  0.2499036487836270
  0.4984992788861050  0.2489086630376335 -0.0084916821451369
  0.2629675186737233  0.7513871802737249  0.2489132989955928
  0.2469585471223877  0.5027911500753844  0.0070222553940056
  0.0052525629006377  0.7503840122772202  0.0016380185329209
  0.7434799347777559  0.7419419677002790  0.2483921188564903
  0.7570172670226584  0.5017318729853862  0.0014556787149644
  0.4928867969971583  0.5049338004137572  0.2428153536075612
  0.2561379562917878  0.2433402314030198  0.7514844610967949
  0.2544638594660700  0.0009082175597178  0.4949084253986374
 -0.0004314040026870  0.2551873395430311  0.5012327697579255
  0.2591424746645837  0.7592691044115411  0.7491139013258598
  0.2474787634859451  0.5020745711892227  0.4932658364162326
  0.9950429263710646  0.7485732799279106  0.4973166183484505
  0.9986024149202959  0.5000719171453986  0.7539948024268982
  0.7446938573814620  0.7595954361242448  0.7427947204093670
  0.7585736826034529  0.4982460223836481  0.4966944350593815
  0.5051053464618092  0.7704174142123354  0.4971193181456988
  0.5046537445924032  0.4983744259857333  0.7506047404012655
  0.5169131121026602  0.0213736290738900  0.9869866020998689
  0.0048719267049345  0.5285148763870534  0.9726809498659269
  0.5037781884149718  0.7309238838998986  0.2791330842256322
  0.2532559150307851 -0.0013244929212564  0.7416826980834139
  0.4691745644368340 -0.0041659280935070  0.5383385331282763
  0.7222375682455350  0.9782458210725681  0.7758240558305979
  0.0038816359725451  0.7508482487911485  0.2481716838993005
  0.7261945848906780  0.5059854061355070  0.2425689815827254
  0.0114643988429384  0.0050282474743391  0.4882202712532773
  0.4998004744868677  0.5097654595781901  0.5006231640782731
  0.7455461274899714  0.5133238691447580  0.7544148622325156
  0.7485976500677873  0.7307861035485359  0.4983228373067684
 
  0.00000000E+00  0.00000000E+00  0.00000000E+00
  0.00000000E+00  0.00000000E+00  0.00000000E+00
  0.00000000E+00  0.00000000E+00  0.00000000E+00
  0.00000000E+00  0.00000000E+00  0.00000000E+00
  0.00000000E+00  0.00000000E+00  0.00000000E+00
  0.00000000E+00  0.00000000E+00  0.00000000E+00
  0.00000000E+00  0.00000000E+00  0.00000000E+00
  0.00000000E+00  0.00000000E+00  0.00000000E+00
  0.00000000E+00  0.00000000E+00  0.00000000E+00
  0.00000000E+00  0.00000000E+00  0.00000000E+00
  0.00000000E+00  0.00000000E+00  0.00000000E+00
  0.00000000E+00  0.00000000E+00  0.00000000E+00
  0.00000000E+00  0.00000000E+00  0.00000000E+00
  0.00000000E+00  0.00000000E+00  0.00000000E+00
  0.00000000E+00  0.00000000E+00  0.00000000E+00
  0.00000000E+00  0.00000000E+00  0.00000000E+00
  0.00000000E+00  0.00000000E+00  0.00000000E+00
  0.00000000E+00  0.00000000E+00  0.00000000E+00
  0.00000000E+00  0.00000000E+00  0.00000000E+00
  0.00000000E+00  0.00000000E+00  0.00000000E+00
  0.00000000E+00  0.00000000E+00  0.00000000E+00
  0.00000000E+00  0.00000000E+00  0.00000000E+00
  0.00000000E+00  0.00000000E+00  0.00000000E+00
  0.00000000E+00  0.00000000E+00  0.00000000E+00
  0.00000000E+00  0.00000000E+00  0.00000000E+00
  0.00000000E+00  0.00000000E+00  0.00000000E+00
  0.00000000E+00  0.00000000E+00  0.00000000E+00
  0.00000000E+00  0.00000000E+00  0.00000000E+00
  0.00000000E+00  0.00000000E+00  0.00000000E+00
  0.00000000E+00  0.00000000E+00  0.00000000E+00
  0.00000000E+00  0.00000000E+00  0.00000000E+00
  0.00000000E+00  0.00000000E+00  0.00000000E+00
  0.00000000E+00  0.00000000E+00  0.00000000E+00
  0.00000000E+00  0.00000000E+00  0.00000000E+00
  0.00000000E+00  0.00000000E+00  0.00000000E+00
  0.00000000E+00  0.00000000E+00  0.00000000E+00
  0.00000000E+00  0.00000000E+00  0.00000000E+00
  0.00000000E+00  0.00000000E+00  0.00000000E+00
  0.00000000E+00  0.00000000E+00  0.00000000E+00
  0.00000000E+00  0.00000000E+00  0.00000000E+00
  0.00000000E+00  0.00000000E+00  0.00000000E+00
  0.00000000E+00  0.00000000E+00  0.00000000E+00
  0.00000000E+00  0.00000000E+00  0.00000000E+00
  0.00000000E+00  0.00000000E+00  0.00000000E+00
  0.00000000E+00  0.00000000E+00  0.00000000E+00
  0.00000000E+00  0.00000000E+00  0.00000000E+00
  0.00000000E+00  0.00000000E+00  0.00000000E+00
  0.00000000E+00  0.00000000E+00  0.00000000E+00
  0.00000000E+00  0.00000000E+00  0.00000000E+00
  0.00000000E+00  0.00000000E+00  0.00000000E+00
  0.00000000E+00  0.00000000E+00  0.00000000E+00
  0.00000000E+00  0.00000000E+00  0.00000000E+00
  0.00000000E+00  0.00000000E+00  0.00000000E+00
  0.00000000E+00  0.00000000E+00  0.00000000E+00
  0.00000000E+00  0.00000000E+00  0.00000000E+00
  0.00000000E+00  0.00000000E+00  0.00000000E+00
  0.00000000E+00  0.00000000E+00  0.00000000E+00
  0.00000000E+00  0.00000000E+00  0.00000000E+00
  0.00000000E+00  0.00000000E+00  0.00000000E+00
  0.00000000E+00  0.00000000E+00  0.00000000E+00
  0.00000000E+00  0.00000000E+00  0.00000000E+00
  0.00000000E+00  0.00000000E+00  0.00000000E+00
  0.00000000E+00  0.00000000E+00  0.00000000E+00
  0.00000000E+00  0.00000000E+00  0.00000000E+00
