Ta                                      
   1.00000000000000     
     3.3451422008256366    0.0000000000000000    0.0000000000000000
    -0.0000000000000000    3.3451422008256366    0.0000000000000000
     0.0000000000000000    0.0000000000000000    3.3451422008256366
  Ta            
     2
Direct
  0.0000000000000000  0.0000000000000000  0.0000000000000000
  0.5000000000000000  0.5000000000000000  0.5000000000000000
 
  0.00000000E+00  0.00000000E+00  0.00000000E+00
  0.00000000E+00  0.00000000E+00  0.00000000E+00
