17-TiZrNbMoTa                           
   1.00000000000000     
     8.9117092318758218   -0.0051136090151013    0.0035729935556538
    -0.0051199265868216    8.9546605834273230   -0.0104246945393967
     0.0035475959824207   -0.0104446474000411    8.8691278333235370
  Ti              Ta              Nb              N               C               Zr              Mo            
     7     6     6    13    19     7     6
Direct
  0.9989224886294202  0.9949820651291681  0.0091438579714373
  0.2405219273365671  0.9942411217153062  0.2500518584776804
  0.2605475459862133  0.4999376532812315  0.2520872224876830
  0.5001738581909018  0.4974153319807647  0.9979218420064770
  0.4974227855078172  0.2592400934453612  0.7533237912714102
  0.0070258894733757  0.4957278045687417  0.4937486547010159
  0.5037854029309520  0.7393433258166339  0.7484626096704451
  0.0034696104531077  0.2453267254938642  0.2592243237432804
  0.7574649109081805  0.7444862104755962  0.0022439308073276
  0.0037642762215324  0.2618864207295029  0.7428003388587741
  0.7544661609485197  0.2675026371117811  0.4993116455661914
  0.9949333741216247  0.7354686294832715  0.7422779082144527
  0.2577251928463338  0.4998776267192506  0.7494256389884694
  0.2594633538444774  0.2576816127726850  0.9954610916668775
  0.5047522900996524  0.2600734669429181  0.2461617032082309
  0.7608062834304788  0.9917921565387008  0.2500845030365610
  0.7383146475076013  0.2526009802013248  0.0080619526611913
  0.2366589836725276  0.7431063764916684  0.0015333903093456
  0.2410926832453758  0.2488652995598373  0.5049094391374445
  0.2488233721587322  0.2498737897790043  0.2494553206999672
  0.2447725063065818  0.0009709544478394  0.0084692194794280
  0.9985936100129331  0.2416593596470909  0.0008355176864617
  0.7544581994167223  0.2464903281834526  0.2549410826358991
  0.7562276949531123  0.9965355495879468  0.0010434232639782
  0.5003743503292566  0.0055102390055843  0.2488207812003127
  0.0056739353066591  0.4903182600011576  0.2573029773884052
  0.5028542266450972  0.7475629239524714  0.9924799037585724
  0.9984439011192464  0.0043827002688596  0.7581672144448540
  0.7495682678090759  0.2500528626400035  0.7474356596659560
  0.7531949126100634  0.0119978658291645  0.4963616929610150
  0.5059642496191644  0.2522726425779058  0.5031797865779264
  0.5023051404656916  0.0027188690373100  0.7510505624372663
  0.0054881002911315  0.0033722172002426  0.2460100255205104
  0.4992092877229380  0.2580113240318396  0.9954321294721507
  0.2441321839949654  0.7493387433418132  0.2457612524759070
  0.2542314787822978  0.5013522588724023  0.0030736573472344
  0.9974531874862196  0.7539908707453413  0.9991790594225477
  0.7541045674237867  0.7415161565564024  0.2515765280333299
  0.7417157548480571  0.4991946880621339  0.9994104070086469
  0.4910525007505440  0.4991107098826407  0.2457337227925644
  0.2519567048139496  0.2537205435996304  0.7498136593593074
  0.2481422372757297  0.0029739979404917  0.4921287246469043
  0.9975126741111187  0.2565152818224254  0.5018401205935625
  0.2498964546808524  0.7459824780256668  0.7550069119043877
  0.2531380417272447  0.4945954635227346  0.4961125499805419
  0.9923705740429355  0.7543215657290526  0.5007348734006342
  0.0000722335926468  0.4985778722683748  0.7450285452774020
  0.7460286001481468  0.7456703518281675  0.7503148812307769
  0.7583209033825065  0.4995815599049396  0.4966172265586537
  0.5052257523292584  0.7466320018232500  0.5070055306153131
  0.4995101526377456  0.5001778730524301  0.7507964447635107
  0.4996895351969320  0.0035610499486457  0.0005629180155480
  0.9974934163560992  0.4975692197729456  0.0072684548176704
  0.4994311574533356  0.7462709674242082  0.2493845099225553
  0.2452876487625647  0.9995514768335378  0.7536972279011320
  0.4970209871559834  0.9999610025287105  0.4992890756534378
  0.7539962269770010  0.9942128710633166  0.7466406879459414
  0.2474676056382721  0.7485775056284469  0.4996366577632219
  0.9964818028262959  0.7670937638634930  0.2568383875263352
  0.7250356166787407  0.4964145435512615  0.2442620798234195
  0.0106686014538528  0.0123203713988373  0.4852265954712126
  0.5058795059294644  0.5075223410273343  0.4975983976814281
  0.7393884523232290  0.5085749926234961  0.7545568204193878
  0.7500326930991934  0.7238327247104368  0.4976837636705847
 
  0.00000000E+00  0.00000000E+00  0.00000000E+00
  0.00000000E+00  0.00000000E+00  0.00000000E+00
  0.00000000E+00  0.00000000E+00  0.00000000E+00
  0.00000000E+00  0.00000000E+00  0.00000000E+00
  0.00000000E+00  0.00000000E+00  0.00000000E+00
  0.00000000E+00  0.00000000E+00  0.00000000E+00
  0.00000000E+00  0.00000000E+00  0.00000000E+00
  0.00000000E+00  0.00000000E+00  0.00000000E+00
  0.00000000E+00  0.00000000E+00  0.00000000E+00
  0.00000000E+00  0.00000000E+00  0.00000000E+00
  0.00000000E+00  0.00000000E+00  0.00000000E+00
  0.00000000E+00  0.00000000E+00  0.00000000E+00
  0.00000000E+00  0.00000000E+00  0.00000000E+00
  0.00000000E+00  0.00000000E+00  0.00000000E+00
  0.00000000E+00  0.00000000E+00  0.00000000E+00
  0.00000000E+00  0.00000000E+00  0.00000000E+00
  0.00000000E+00  0.00000000E+00  0.00000000E+00
  0.00000000E+00  0.00000000E+00  0.00000000E+00
  0.00000000E+00  0.00000000E+00  0.00000000E+00
  0.00000000E+00  0.00000000E+00  0.00000000E+00
  0.00000000E+00  0.00000000E+00  0.00000000E+00
  0.00000000E+00  0.00000000E+00  0.00000000E+00
  0.00000000E+00  0.00000000E+00  0.00000000E+00
  0.00000000E+00  0.00000000E+00  0.00000000E+00
  0.00000000E+00  0.00000000E+00  0.00000000E+00
  0.00000000E+00  0.00000000E+00  0.00000000E+00
  0.00000000E+00  0.00000000E+00  0.00000000E+00
  0.00000000E+00  0.00000000E+00  0.00000000E+00
  0.00000000E+00  0.00000000E+00  0.00000000E+00
  0.00000000E+00  0.00000000E+00  0.00000000E+00
  0.00000000E+00  0.00000000E+00  0.00000000E+00
  0.00000000E+00  0.00000000E+00  0.00000000E+00
  0.00000000E+00  0.00000000E+00  0.00000000E+00
  0.00000000E+00  0.00000000E+00  0.00000000E+00
  0.00000000E+00  0.00000000E+00  0.00000000E+00
  0.00000000E+00  0.00000000E+00  0.00000000E+00
  0.00000000E+00  0.00000000E+00  0.00000000E+00
  0.00000000E+00  0.00000000E+00  0.00000000E+00
  0.00000000E+00  0.00000000E+00  0.00000000E+00
  0.00000000E+00  0.00000000E+00  0.00000000E+00
  0.00000000E+00  0.00000000E+00  0.00000000E+00
  0.00000000E+00  0.00000000E+00  0.00000000E+00
  0.00000000E+00  0.00000000E+00  0.00000000E+00
  0.00000000E+00  0.00000000E+00  0.00000000E+00
  0.00000000E+00  0.00000000E+00  0.00000000E+00
  0.00000000E+00  0.00000000E+00  0.00000000E+00
  0.00000000E+00  0.00000000E+00  0.00000000E+00
  0.00000000E+00  0.00000000E+00  0.00000000E+00
  0.00000000E+00  0.00000000E+00  0.00000000E+00
  0.00000000E+00  0.00000000E+00  0.00000000E+00
  0.00000000E+00  0.00000000E+00  0.00000000E+00
  0.00000000E+00  0.00000000E+00  0.00000000E+00
  0.00000000E+00  0.00000000E+00  0.00000000E+00
  0.00000000E+00  0.00000000E+00  0.00000000E+00
  0.00000000E+00  0.00000000E+00  0.00000000E+00
  0.00000000E+00  0.00000000E+00  0.00000000E+00
  0.00000000E+00  0.00000000E+00  0.00000000E+00
  0.00000000E+00  0.00000000E+00  0.00000000E+00
  0.00000000E+00  0.00000000E+00  0.00000000E+00
  0.00000000E+00  0.00000000E+00  0.00000000E+00
  0.00000000E+00  0.00000000E+00  0.00000000E+00
  0.00000000E+00  0.00000000E+00  0.00000000E+00
  0.00000000E+00  0.00000000E+00  0.00000000E+00
  0.00000000E+00  0.00000000E+00  0.00000000E+00
