86-ZrVTaCrW                             
   1.00000000000000     
     8.7723360482348340   -0.0086326990558801   -0.0265590683103404
    -0.0029733869175139    8.7567844091234992   -0.0075473951919628
     0.0049697046110026   -0.0228524665843351    8.8161745633085982
   V    Ta   Zr   N    C    Cr   W 
     7     6     7    13    19     6     6
Direct
  0.0033641694523335  0.9813660681323998  0.0288052008415426
  0.2341012289090732  0.9800868369458898  0.2565210832779218
  0.2757483014469500  0.5162345793400697  0.2439392518107162
  0.4986129581661042  0.4727370301058604  0.9889353915681844
  0.4809584217084280  0.2450152134414583  0.7548046545542221
  0.0011384296214808  0.4971857574027833  0.5313501912464931
  0.5039060772387145  0.7620426721920203  0.7348502872525480
  0.9992510861450720  0.2724875565088393  0.2543129580722965
  0.7435972760245845  0.7508982022108239  0.0008139227097425
  0.0113163812433728  0.2355645615428923  0.7478939506270658
  0.7489993939914162  0.2608941016374006  0.5134529885778615
  0.0003785883785739  0.7598874533351596  0.7524269495002185
  0.2578629473056316  0.5020352177193669  0.7536338000214869
  0.2448695884494175  0.2415556124331935  0.0014269644836891
  0.4926382173621434  0.2386373088178231  0.2479538116945258
  0.7385221465293608  0.9906199154719776  0.2592479025870826
  0.7530826666641982  0.2475487504979106  0.9889784866896496
  0.2692938731961807  0.7587285943141360  0.0007622166951503
  0.2518800379005251  0.2509999745546035  0.4991199747194226
  0.2474806579771392  0.7484178293228613  0.5008867190694195
  0.2400355372416502  0.2537658856682833  0.2502260778851834
  0.2307025590507474  0.9983244628026424  0.0201484328598589
  0.9987236636717327  0.2434326581781516  0.0032593424526125
  0.7504310606485053  0.2514250806417333  0.2544721201865823
  0.7586572934967527  0.9941987706730013  0.9917297067454811
  0.4861887675715105  0.9872122069827154  0.2739771823972298
  0.9930622535518482  0.5013654102341224  0.2496106563229061
  0.5130518322584847  0.7711390930231995  0.9765868585812305
  0.9808121708669968  0.0013616149866452  0.7506606244952223
  0.7511946130150101  0.2530352076528022  0.7434005262775074
  0.7529028440188220  0.0035588075809910  0.5122211626205643
  0.5079085644346727  0.2511627191072039  0.5085924881573440
  0.5070040401551095  0.0088895606716844  0.7397376457522135
  0.9994813734359944  0.0064473526794453  0.2491981062247668
  0.5000488489778711  0.2382876629100516  0.9885177631322138
  0.2592799098354680  0.7473089753818525  0.2506582040658294
  0.2496615634800547  0.5017423658907842  0.0052673826181803
  0.0018576063637214  0.7473084177741203  0.0028390020123619
  0.7417601637877216  0.7413848065678099  0.2481004825133068
  0.7541894867310913  0.5042193689242006  0.0001146010917321
  0.4928289589397239  0.5071350251901340  0.2395542070046148
  0.2547294577924210  0.2401451240794434  0.7509319199100603
  0.2482309417211756  0.9988067336940133  0.5030707115868099
  0.9954887093680413  0.2518580642647836  0.5007951574928421
  0.2558824140507728  0.7617838481245858  0.7504193143576443
  0.2479914367324180  0.5004169709901852  0.4953784699564995
  0.9913993879719356  0.7486077557929948  0.5000782252712163
  0.0004245399677379  0.5000438146799279  0.7536904763198683
  0.7438257776465375  0.7567689163135146  0.7445459852121077
  0.7576839282689997  0.4987630918656352  0.4949962674381163
  0.5051861081334169  0.7620164728198261  0.5008299914376043
  0.5046453295916611  0.5014107528811143  0.7508283893657240
  0.5336432008000573  0.0143157130960218  0.9523509226590452
  0.0099125183393764  0.5212570095028850  0.9686050776304777
  0.5034108614358475  0.7349187284960987  0.2856289554720751
  0.2808726868876094  0.9996109294321093  0.7284092255776546
  0.4741787007500053  0.9885172417223241  0.5167254506279905
  0.7374309072511011  0.9762911894274223  0.7616735955808159
  0.0031256482333028  0.7566546902453333  0.2494350513259860
  0.7227457886542962  0.5070431171548839  0.2386926702483815
  0.0096683240407261  0.0005624118648851  0.4820439911207740
  0.5003976612676998  0.5077863848939310  0.4990300719748796
  0.7434269096458352  0.5156752839931327  0.7562077587566116
  0.7489135782047966  0.7310968162159014  0.4966431772806808
 
  0.00000000E+00  0.00000000E+00  0.00000000E+00
  0.00000000E+00  0.00000000E+00  0.00000000E+00
  0.00000000E+00  0.00000000E+00  0.00000000E+00
  0.00000000E+00  0.00000000E+00  0.00000000E+00
  0.00000000E+00  0.00000000E+00  0.00000000E+00
  0.00000000E+00  0.00000000E+00  0.00000000E+00
  0.00000000E+00  0.00000000E+00  0.00000000E+00
  0.00000000E+00  0.00000000E+00  0.00000000E+00
  0.00000000E+00  0.00000000E+00  0.00000000E+00
  0.00000000E+00  0.00000000E+00  0.00000000E+00
  0.00000000E+00  0.00000000E+00  0.00000000E+00
  0.00000000E+00  0.00000000E+00  0.00000000E+00
  0.00000000E+00  0.00000000E+00  0.00000000E+00
  0.00000000E+00  0.00000000E+00  0.00000000E+00
  0.00000000E+00  0.00000000E+00  0.00000000E+00
  0.00000000E+00  0.00000000E+00  0.00000000E+00
  0.00000000E+00  0.00000000E+00  0.00000000E+00
  0.00000000E+00  0.00000000E+00  0.00000000E+00
  0.00000000E+00  0.00000000E+00  0.00000000E+00
  0.00000000E+00  0.00000000E+00  0.00000000E+00
  0.00000000E+00  0.00000000E+00  0.00000000E+00
  0.00000000E+00  0.00000000E+00  0.00000000E+00
  0.00000000E+00  0.00000000E+00  0.00000000E+00
  0.00000000E+00  0.00000000E+00  0.00000000E+00
  0.00000000E+00  0.00000000E+00  0.00000000E+00
  0.00000000E+00  0.00000000E+00  0.00000000E+00
  0.00000000E+00  0.00000000E+00  0.00000000E+00
  0.00000000E+00  0.00000000E+00  0.00000000E+00
  0.00000000E+00  0.00000000E+00  0.00000000E+00
  0.00000000E+00  0.00000000E+00  0.00000000E+00
  0.00000000E+00  0.00000000E+00  0.00000000E+00
  0.00000000E+00  0.00000000E+00  0.00000000E+00
  0.00000000E+00  0.00000000E+00  0.00000000E+00
  0.00000000E+00  0.00000000E+00  0.00000000E+00
  0.00000000E+00  0.00000000E+00  0.00000000E+00
  0.00000000E+00  0.00000000E+00  0.00000000E+00
  0.00000000E+00  0.00000000E+00  0.00000000E+00
  0.00000000E+00  0.00000000E+00  0.00000000E+00
  0.00000000E+00  0.00000000E+00  0.00000000E+00
  0.00000000E+00  0.00000000E+00  0.00000000E+00
  0.00000000E+00  0.00000000E+00  0.00000000E+00
  0.00000000E+00  0.00000000E+00  0.00000000E+00
  0.00000000E+00  0.00000000E+00  0.00000000E+00
  0.00000000E+00  0.00000000E+00  0.00000000E+00
  0.00000000E+00  0.00000000E+00  0.00000000E+00
  0.00000000E+00  0.00000000E+00  0.00000000E+00
  0.00000000E+00  0.00000000E+00  0.00000000E+00
  0.00000000E+00  0.00000000E+00  0.00000000E+00
  0.00000000E+00  0.00000000E+00  0.00000000E+00
  0.00000000E+00  0.00000000E+00  0.00000000E+00
  0.00000000E+00  0.00000000E+00  0.00000000E+00
  0.00000000E+00  0.00000000E+00  0.00000000E+00
  0.00000000E+00  0.00000000E+00  0.00000000E+00
  0.00000000E+00  0.00000000E+00  0.00000000E+00
  0.00000000E+00  0.00000000E+00  0.00000000E+00
  0.00000000E+00  0.00000000E+00  0.00000000E+00
  0.00000000E+00  0.00000000E+00  0.00000000E+00
  0.00000000E+00  0.00000000E+00  0.00000000E+00
  0.00000000E+00  0.00000000E+00  0.00000000E+00
  0.00000000E+00  0.00000000E+00  0.00000000E+00
  0.00000000E+00  0.00000000E+00  0.00000000E+00
  0.00000000E+00  0.00000000E+00  0.00000000E+00
  0.00000000E+00  0.00000000E+00  0.00000000E+00
  0.00000000E+00  0.00000000E+00  0.00000000E+00
