86-ZrVTaCrW                             
   1.00000000000000     
     8.7731800658344863   -0.0086412933547826   -0.0264744631652445
    -0.0029813848279138    8.7577213969377325   -0.0075412836927892
     0.0050584579539704   -0.0228478142662404    8.8172384236276642
   V    Ta   Zr   N    C    Cr   W 
     7     6     7    13    19     6     6
Direct
  0.0033613781716271  0.9813686552820489  0.0288100662441176
  0.2341046453879832  0.9800859089242864  0.2565180515317137
  0.2757443513911886  0.5162316436803376  0.2439365345117812
  0.4986139329752516  0.4727360800167134  0.9889383983365522
  0.4809551072099370  0.2450124064967099  0.7547998297986539
  0.0011423438261667  0.4971860707728973  0.5313445851540881
  0.5039060845250692  0.7620306522824567  0.7348450323846797
  0.9992486141336083  0.2724953910533665  0.2543114360485780
  0.7435948410230294  0.7508998726719296  0.0008153120165454
  0.0113146210461576  0.2355607921342609  0.7478955394504623
  0.7489996649301662  0.2608974475218190  0.5134475898778778
  0.0003759996234467  0.7598891600387052  0.7524230450480570
  0.2578621882920381  0.5020342558467716  0.7536327990748888
  0.2448707722969338  0.2415537242193271  0.0014247651270610
  0.4926389298800536  0.2386378089543923  0.2479551183678426
  0.7385227479072812  0.9906214053604464  0.2592461944408767
  0.7530863457034204  0.2475461323869100  0.9889801216199481
  0.2692938358414487  0.7587307648938035  0.0007616399279518
  0.2518813361635247  0.2509998401966709  0.4991189996475252
  0.2474833116739873  0.7484154351542316  0.5008829302933021
  0.2400360491578566  0.2537679750454557  0.2502263722248677
  0.2307049376582479  0.9983253821338984  0.0201468753960526
  0.9987193500747684  0.2434200459003187  0.0032608826785470
  0.7504295483938160  0.2514241464986531  0.2544697072616284
  0.7586578090076621  0.9942011360474611  0.9917314490706313
  0.4861920348195752  0.9872138830675588  0.2739690404234223
  0.9930632201649120  0.5013676797795152  0.2496123163529704
  0.5130480213290703  0.7711432343912243  0.9765876990222661
  0.9808073199853009  0.0013616132849326  0.7506605278465126
  0.7511949328851270  0.2530442723579233  0.7434083385568828
  0.7529059720321407  0.0035623935598016  0.5122238524439455
  0.5079064441173197  0.2511617507067009  0.5085934961279962
  0.5070039434232667  0.0088840899910846  0.7397350451626576
  0.9994825613878716  0.0064492476022251  0.2491833804986844
  0.5000460515083072  0.2382885942474539  0.9885174651135958
  0.2592845621397143  0.7473094067951488  0.2506576715701840
  0.2496593489360271  0.5017419902510639  0.0052681645253591
  0.0018558008640984  0.7473117767571630  0.0028373416245620
  0.7417615541098549  0.7413864855972964  0.2481017404879421
  0.7541910590753501  0.5042181853257012  0.0001125697419874
  0.4928273797003102  0.5071350941387459  0.2395543499639389
  0.2547302986586081  0.2401433144142917  0.7509331079011956
  0.2482331264582676  0.9988080027253821  0.5030647265162667
  0.9954889675123596  0.2518600580587728  0.5007960640888571
  0.2558813547150813  0.7617836044925205  0.7504198684724294
  0.2479892161275218  0.5004182000800699  0.4953773582039082
  0.9914023294329746  0.7486073944637243  0.5000796040225489
  0.0004243952195850  0.5000413110753763  0.7536902009979625
  0.7438241849920056  0.7567692112982909  0.7445476008743882
  0.7576869346661846  0.4987615123202452  0.4949967726384998
  0.5051857860088957  0.7620181935264079  0.5008279244285284
  0.5046427960779999  0.5014073828254730  0.7508297935853888
  0.5336394795156140  0.0143156724989835  0.9523619938460065
  0.0099076014634267  0.5212657537774974  0.9686155916855816
  0.5034142907961169  0.7349201953884669  0.2856219611268200
  0.2808694155639216  0.9996079647892158  0.7284124494375764
  0.4741847161224237  0.9885268452550011  0.5167288694967683
  0.7374320342753584  0.9762896168668161  0.7616729806239164
  0.0031243699942069  0.7566470678770915  0.2494374989759551
  0.7227484618989978  0.5070380989083081  0.2386927323773111
  0.0096723057677639  0.0005621311761832  0.4820633703710568
  0.5003973233965550  0.5077835980077202  0.4990331511146368
  0.7434273433879280  0.5156753521276958  0.7562068198560818
  0.7489146911752683  0.7310974376790502  0.4966434203612182
 
  0.00000000E+00  0.00000000E+00  0.00000000E+00
  0.00000000E+00  0.00000000E+00  0.00000000E+00
  0.00000000E+00  0.00000000E+00  0.00000000E+00
  0.00000000E+00  0.00000000E+00  0.00000000E+00
  0.00000000E+00  0.00000000E+00  0.00000000E+00
  0.00000000E+00  0.00000000E+00  0.00000000E+00
  0.00000000E+00  0.00000000E+00  0.00000000E+00
  0.00000000E+00  0.00000000E+00  0.00000000E+00
  0.00000000E+00  0.00000000E+00  0.00000000E+00
  0.00000000E+00  0.00000000E+00  0.00000000E+00
  0.00000000E+00  0.00000000E+00  0.00000000E+00
  0.00000000E+00  0.00000000E+00  0.00000000E+00
  0.00000000E+00  0.00000000E+00  0.00000000E+00
  0.00000000E+00  0.00000000E+00  0.00000000E+00
  0.00000000E+00  0.00000000E+00  0.00000000E+00
  0.00000000E+00  0.00000000E+00  0.00000000E+00
  0.00000000E+00  0.00000000E+00  0.00000000E+00
  0.00000000E+00  0.00000000E+00  0.00000000E+00
  0.00000000E+00  0.00000000E+00  0.00000000E+00
  0.00000000E+00  0.00000000E+00  0.00000000E+00
  0.00000000E+00  0.00000000E+00  0.00000000E+00
  0.00000000E+00  0.00000000E+00  0.00000000E+00
  0.00000000E+00  0.00000000E+00  0.00000000E+00
  0.00000000E+00  0.00000000E+00  0.00000000E+00
  0.00000000E+00  0.00000000E+00  0.00000000E+00
  0.00000000E+00  0.00000000E+00  0.00000000E+00
  0.00000000E+00  0.00000000E+00  0.00000000E+00
  0.00000000E+00  0.00000000E+00  0.00000000E+00
  0.00000000E+00  0.00000000E+00  0.00000000E+00
  0.00000000E+00  0.00000000E+00  0.00000000E+00
  0.00000000E+00  0.00000000E+00  0.00000000E+00
  0.00000000E+00  0.00000000E+00  0.00000000E+00
  0.00000000E+00  0.00000000E+00  0.00000000E+00
  0.00000000E+00  0.00000000E+00  0.00000000E+00
  0.00000000E+00  0.00000000E+00  0.00000000E+00
  0.00000000E+00  0.00000000E+00  0.00000000E+00
  0.00000000E+00  0.00000000E+00  0.00000000E+00
  0.00000000E+00  0.00000000E+00  0.00000000E+00
  0.00000000E+00  0.00000000E+00  0.00000000E+00
  0.00000000E+00  0.00000000E+00  0.00000000E+00
  0.00000000E+00  0.00000000E+00  0.00000000E+00
  0.00000000E+00  0.00000000E+00  0.00000000E+00
  0.00000000E+00  0.00000000E+00  0.00000000E+00
  0.00000000E+00  0.00000000E+00  0.00000000E+00
  0.00000000E+00  0.00000000E+00  0.00000000E+00
  0.00000000E+00  0.00000000E+00  0.00000000E+00
  0.00000000E+00  0.00000000E+00  0.00000000E+00
  0.00000000E+00  0.00000000E+00  0.00000000E+00
  0.00000000E+00  0.00000000E+00  0.00000000E+00
  0.00000000E+00  0.00000000E+00  0.00000000E+00
  0.00000000E+00  0.00000000E+00  0.00000000E+00
  0.00000000E+00  0.00000000E+00  0.00000000E+00
  0.00000000E+00  0.00000000E+00  0.00000000E+00
  0.00000000E+00  0.00000000E+00  0.00000000E+00
  0.00000000E+00  0.00000000E+00  0.00000000E+00
  0.00000000E+00  0.00000000E+00  0.00000000E+00
  0.00000000E+00  0.00000000E+00  0.00000000E+00
  0.00000000E+00  0.00000000E+00  0.00000000E+00
  0.00000000E+00  0.00000000E+00  0.00000000E+00
  0.00000000E+00  0.00000000E+00  0.00000000E+00
  0.00000000E+00  0.00000000E+00  0.00000000E+00
  0.00000000E+00  0.00000000E+00  0.00000000E+00
  0.00000000E+00  0.00000000E+00  0.00000000E+00
  0.00000000E+00  0.00000000E+00  0.00000000E+00
