115-TiNbCrMoW                           
   1.00000000000000     
     8.6418703691466607    0.0041403540512906   -0.0011418418365957
     0.0098069233002690    8.6739944667687663    0.0238203430382041
     0.0298640348044266    0.0086151980938186    8.6708971282320686
   Nb   W    Ti   N    C    Cr   Mo
     7     6     7    13    19     6     6
Direct
  0.0067359632776386  0.9967326868295572  0.9891517843253287
  0.2548727567857736  0.9938302855729482  0.2530876048845191
  0.2506478384197452  0.5071139766565408  0.2453037720371443
  0.5042854901376327  0.4930805307685008  0.9976593619975436
  0.5031322952156552  0.2424498835541707  0.7498509276388168
  0.0026649775566035  0.5007176826441072  0.5073275374822186
  0.5015751165850693  0.7602253371070824  0.7396888684700399
  0.9919460909196138  0.2333763150892550  0.2592445473902456
  0.7636104136878283  0.7466198285056498  0.9971988195830762
  0.0159913123722316  0.2342290133445061  0.7464521928699261
  0.7618107647022048  0.2562933021359615  0.4832629135181173
  0.0028886177410778  0.7358753499563419  0.7558207834504960
  0.2542584643775549  0.5039939097336312  0.7528727308529440
  0.2523469201360177  0.2487905282998442  0.9937538357443536
  0.5014604351365800  0.2465900200184983  0.2491431572013885
  0.7346533319388344  0.9914941410659935  0.2597882439668949
  0.7483339432931075  0.2456277410266291  0.9953116790928579
  0.2592453532881596  0.7540595768361503  0.9997429104221011
  0.2562665569721865  0.2496088462631589  0.5062664811541761
  0.2506204893999956  0.7522338533975408  0.4998326129909912
  0.2493545924458566  0.2498970059212510  0.2509709300022991
  0.2621703036793978  0.0025217303170620  0.9959226214950609
  0.0016317185821760  0.2511281030819938  0.0054703523616937
  0.7448486454723690  0.2397849760415614  0.2416837832704727
  0.7451013294352403  0.9965050695721436  0.0038722812214093
  0.5010135382571068  0.0025502002446049  0.2424844412592900
  0.9987502875561247  0.4884040556976376  0.2503329048847909
  0.5041631289595396  0.7553497550479362  0.9963953635427317
  0.9853910376354826  0.9877602218869903  0.7424153129942928
  0.7587755688246358  0.2286888090958094  0.7451109898265126
  0.7427817732817247  0.0082288878250466  0.4930301053026907
  0.5054758905398418  0.2447891000514805  0.4936220954062633
  0.4939575328775187  0.0006256630489574  0.7482163188150750
  0.9924694522698968 -0.0000621658222568  0.2465984827552418
  0.5021694744064376  0.2491882886024901  0.0019771678381157
  0.2597604663323279  0.7517560591729783  0.2501738035094205
  0.2437120671064287  0.5018567510258157  0.9968711978864555
  0.0107210775357328  0.7446105098028722  0.0051963629334989
  0.7407606283380602  0.7468235178167211  0.2455761899008416
  0.7636197042980427  0.4949218015127705  0.0096130586219634
  0.4948249223428644  0.5016677316667244  0.2469251815360179
  0.2569058601627769  0.2470885266043905  0.7497391620294006
  0.2555836500717171  0.0009407158977754  0.5157773711216442
  0.0081660125444320  0.2502738861526955  0.5036357180121314
  0.2491484993942535  0.7603346654794927  0.7511147652449525
  0.2512553614122428  0.5010653827846180  0.5010918637092566
  0.0019853697387181  0.7530886174634368  0.5033375014978086
  0.9995324919021267  0.4855173530232771  0.7575534321982776
  0.7555957082724748  0.7704300802458098  0.7452709291613274
  0.7484390953862320  0.4930543260646815  0.5097524336574443
  0.4988299298521428  0.7650053419284809  0.4907395802680878
  0.5017621660972189  0.5016350008133581  0.7455086605761028
  0.5098125779893893  0.0240523426547678  0.9854903187185052
  0.9907811058211846  0.5228822892823121  0.9760547043963650
  0.5040289732730735  0.7323674922033248  0.2752096877527515
  0.2162234765571170  0.0126612213038337  0.7632037532435159
  0.4741094882128472  0.0002823308104295  0.4929315266726722
  0.7173684992251963  0.9957735939405874  0.7837223381917643
  0.9987660569145855  0.7673064897096054  0.2517275304444069
  0.7314747360332745  0.5044234440323442  0.2551322168898603
  0.0160395818170164  0.0027578102440986  0.4964552203006519
  0.4965823483288853  0.5129456190442543  0.4926561156462280
  0.7489006585188099  0.5207578957437977  0.7638681761382894
  0.7499084563539492  0.7354164451559889  0.4968074196912559
 
  0.00000000E+00  0.00000000E+00  0.00000000E+00
  0.00000000E+00  0.00000000E+00  0.00000000E+00
  0.00000000E+00  0.00000000E+00  0.00000000E+00
  0.00000000E+00  0.00000000E+00  0.00000000E+00
  0.00000000E+00  0.00000000E+00  0.00000000E+00
  0.00000000E+00  0.00000000E+00  0.00000000E+00
  0.00000000E+00  0.00000000E+00  0.00000000E+00
  0.00000000E+00  0.00000000E+00  0.00000000E+00
  0.00000000E+00  0.00000000E+00  0.00000000E+00
  0.00000000E+00  0.00000000E+00  0.00000000E+00
  0.00000000E+00  0.00000000E+00  0.00000000E+00
  0.00000000E+00  0.00000000E+00  0.00000000E+00
  0.00000000E+00  0.00000000E+00  0.00000000E+00
  0.00000000E+00  0.00000000E+00  0.00000000E+00
  0.00000000E+00  0.00000000E+00  0.00000000E+00
  0.00000000E+00  0.00000000E+00  0.00000000E+00
  0.00000000E+00  0.00000000E+00  0.00000000E+00
  0.00000000E+00  0.00000000E+00  0.00000000E+00
  0.00000000E+00  0.00000000E+00  0.00000000E+00
  0.00000000E+00  0.00000000E+00  0.00000000E+00
  0.00000000E+00  0.00000000E+00  0.00000000E+00
  0.00000000E+00  0.00000000E+00  0.00000000E+00
  0.00000000E+00  0.00000000E+00  0.00000000E+00
  0.00000000E+00  0.00000000E+00  0.00000000E+00
  0.00000000E+00  0.00000000E+00  0.00000000E+00
  0.00000000E+00  0.00000000E+00  0.00000000E+00
  0.00000000E+00  0.00000000E+00  0.00000000E+00
  0.00000000E+00  0.00000000E+00  0.00000000E+00
  0.00000000E+00  0.00000000E+00  0.00000000E+00
  0.00000000E+00  0.00000000E+00  0.00000000E+00
  0.00000000E+00  0.00000000E+00  0.00000000E+00
  0.00000000E+00  0.00000000E+00  0.00000000E+00
  0.00000000E+00  0.00000000E+00  0.00000000E+00
  0.00000000E+00  0.00000000E+00  0.00000000E+00
  0.00000000E+00  0.00000000E+00  0.00000000E+00
  0.00000000E+00  0.00000000E+00  0.00000000E+00
  0.00000000E+00  0.00000000E+00  0.00000000E+00
  0.00000000E+00  0.00000000E+00  0.00000000E+00
  0.00000000E+00  0.00000000E+00  0.00000000E+00
  0.00000000E+00  0.00000000E+00  0.00000000E+00
  0.00000000E+00  0.00000000E+00  0.00000000E+00
  0.00000000E+00  0.00000000E+00  0.00000000E+00
  0.00000000E+00  0.00000000E+00  0.00000000E+00
  0.00000000E+00  0.00000000E+00  0.00000000E+00
  0.00000000E+00  0.00000000E+00  0.00000000E+00
  0.00000000E+00  0.00000000E+00  0.00000000E+00
  0.00000000E+00  0.00000000E+00  0.00000000E+00
  0.00000000E+00  0.00000000E+00  0.00000000E+00
  0.00000000E+00  0.00000000E+00  0.00000000E+00
  0.00000000E+00  0.00000000E+00  0.00000000E+00
  0.00000000E+00  0.00000000E+00  0.00000000E+00
  0.00000000E+00  0.00000000E+00  0.00000000E+00
  0.00000000E+00  0.00000000E+00  0.00000000E+00
  0.00000000E+00  0.00000000E+00  0.00000000E+00
  0.00000000E+00  0.00000000E+00  0.00000000E+00
  0.00000000E+00  0.00000000E+00  0.00000000E+00
  0.00000000E+00  0.00000000E+00  0.00000000E+00
  0.00000000E+00  0.00000000E+00  0.00000000E+00
  0.00000000E+00  0.00000000E+00  0.00000000E+00
  0.00000000E+00  0.00000000E+00  0.00000000E+00
  0.00000000E+00  0.00000000E+00  0.00000000E+00
  0.00000000E+00  0.00000000E+00  0.00000000E+00
  0.00000000E+00  0.00000000E+00  0.00000000E+00
  0.00000000E+00  0.00000000E+00  0.00000000E+00
