29-TiHfNbMoW                            
   1.00000000000000     
     8.8669286313857540    0.0174340312121382    0.0443845854394396
     0.0175110271705374    8.9021960785018059   -0.0092150904517027
     0.0443011133905255   -0.0091787952072257    8.8782428749890911
  Ti              Mo              Hf              N               C               W               Nb            
     7     6     7    13    19     6     6
Direct
  0.0015216514901153  0.9877716823607772  0.0038389163690091
  0.2464212015554721  0.9948132063536199  0.2563198413844230
  0.2510283268443292  0.5073934726770825  0.2472206228979671
  0.4975904245736527  0.4874354100584581  0.9968004421169583
  0.4893885025664927  0.2460928190953427  0.7523413641493465
  0.0007371123610846  0.4989562980690276  0.5025597772447183
  0.5018070356528294  0.7484371946002579  0.7407945729748624
  0.9906408931092930  0.2351514772909009  0.2698334685275577
  0.7690488939805395  0.7448041670520805  0.9919173089394846
  0.0244417561917178  0.2606999240765030  0.7449267325249901
  0.7622962594065187  0.2667045244156887  0.4857143120203441
  0.9953614268604948  0.7338408396480031  0.7605299482313556
  0.2570061035157338  0.5063020450008159  0.7536477942090073
  0.2436178476472922  0.2483406565939228  0.9994729909209834
  0.4980502832007441  0.2522497888911089  0.2474536557631228
  0.7486626067161199  0.9975405238989196  0.2538482162329743
  0.7566003863987075  0.2529648729351023  0.9881629437631563
  0.2628153224539894  0.7546574266450375  0.0005350289810385
  0.2497617046664829  0.2531875777692171  0.5025002429350067
  0.2447613912744273  0.7482928131771599  0.5034345435118811
  0.2486051757772421  0.2458546937579743  0.2520844128510825
  0.2556590509113197  0.0021204976724488  0.0003239962697359
  0.9999743596222078  0.2541037288290474  0.0087630597184502
  0.7476126517695836  0.2461476642693794  0.2429659815388492
  0.7577130489357210  0.9998215995991413  0.0056779646762048
  0.4958429266019417  0.9975892252807383  0.2423466138710688
  0.0042054935816298  0.4935500586376311  0.2456766499668528
  0.5073455834990456  0.7587311591295200  0.9998669456982485
  0.9899470083693220  0.0155373642775769  0.7582095272839937
  0.7469930681424071  0.2426284921229792  0.7429854482775252
  0.7386150879271923  0.0030453040574569  0.5050698519289388
  0.5019224700717244  0.2415440833051087  0.4998452226666305
  0.5055248226494418  0.0012112117477056  0.7356306612443237
  0.0020530448158977  0.9995539714738646  0.2470432809221891
  0.5011965762141660  0.2532860924745245  0.9948833009747077
  0.2544228145186681  0.7511384175402206  0.2509741569981562
  0.2494467682385609  0.5022045884047089  0.0046210666664768
  0.0089699901628802  0.7545919458424052  0.0018026555206166
  0.7454904834491479  0.7473443551099157  0.2439481500465811
  0.7516344441228670  0.5051576003792403  0.9977171124033907
  0.4967312465760615  0.5031907738670505  0.2454243738432347
  0.2597193010424995  0.2482371666912679  0.7507439666211416
  0.2469007138423360  0.0001753621498427  0.4991394014237742
  0.9951439421825320  0.2572119809538795  0.5105421325031836
  0.2509858805135388  0.7547416899128507  0.7522438329864910
  0.2459621930709440  0.5001664702658397  0.4952770302214807
  0.9948830547807166  0.7478139561543125  0.5059160282482533
  0.0008785118367682  0.4996152488203383  0.7502784971676325
  0.7437625852269757  0.7498632399500369  0.7491658840075762
  0.7549559056665601  0.4993764774504108  0.4982087686107351
  0.4965146369157918  0.7497688695189314  0.5046728806993979
  0.4977327730994722  0.5003430270027336  0.7521955642771937
  0.5120796802779805  0.0152245573973150  0.9821109007942052
  0.0028339953083257  0.5169980247620476  0.9946798222947175
  0.5013805191425028  0.7416090642514508  0.2642947617407043
  0.2333949198252949  0.9952627339174323  0.7460491760560012
  0.4808814814232641  0.9872439629534092  0.5014870559097186
  0.7400118981633671  0.9811311241489480  0.7704010109405851
  0.9999967164150059  0.7568017406985016  0.2501797156873581
  0.7478168039093367  0.4998402038691127  0.2495598495926700
  0.0051038941677468  0.0043917048567494  0.5010855866362042
  0.4977634940827066  0.5065295465396965  0.4996504395336240
  0.7392527452329289  0.5058005873719863  0.7479129036253570
  0.7505797794503961  0.7378643839752972  0.4964923053566068
 
  0.00000000E+00  0.00000000E+00  0.00000000E+00
  0.00000000E+00  0.00000000E+00  0.00000000E+00
  0.00000000E+00  0.00000000E+00  0.00000000E+00
  0.00000000E+00  0.00000000E+00  0.00000000E+00
  0.00000000E+00  0.00000000E+00  0.00000000E+00
  0.00000000E+00  0.00000000E+00  0.00000000E+00
  0.00000000E+00  0.00000000E+00  0.00000000E+00
  0.00000000E+00  0.00000000E+00  0.00000000E+00
  0.00000000E+00  0.00000000E+00  0.00000000E+00
  0.00000000E+00  0.00000000E+00  0.00000000E+00
  0.00000000E+00  0.00000000E+00  0.00000000E+00
  0.00000000E+00  0.00000000E+00  0.00000000E+00
  0.00000000E+00  0.00000000E+00  0.00000000E+00
  0.00000000E+00  0.00000000E+00  0.00000000E+00
  0.00000000E+00  0.00000000E+00  0.00000000E+00
  0.00000000E+00  0.00000000E+00  0.00000000E+00
  0.00000000E+00  0.00000000E+00  0.00000000E+00
  0.00000000E+00  0.00000000E+00  0.00000000E+00
  0.00000000E+00  0.00000000E+00  0.00000000E+00
  0.00000000E+00  0.00000000E+00  0.00000000E+00
  0.00000000E+00  0.00000000E+00  0.00000000E+00
  0.00000000E+00  0.00000000E+00  0.00000000E+00
  0.00000000E+00  0.00000000E+00  0.00000000E+00
  0.00000000E+00  0.00000000E+00  0.00000000E+00
  0.00000000E+00  0.00000000E+00  0.00000000E+00
  0.00000000E+00  0.00000000E+00  0.00000000E+00
  0.00000000E+00  0.00000000E+00  0.00000000E+00
  0.00000000E+00  0.00000000E+00  0.00000000E+00
  0.00000000E+00  0.00000000E+00  0.00000000E+00
  0.00000000E+00  0.00000000E+00  0.00000000E+00
  0.00000000E+00  0.00000000E+00  0.00000000E+00
  0.00000000E+00  0.00000000E+00  0.00000000E+00
  0.00000000E+00  0.00000000E+00  0.00000000E+00
  0.00000000E+00  0.00000000E+00  0.00000000E+00
  0.00000000E+00  0.00000000E+00  0.00000000E+00
  0.00000000E+00  0.00000000E+00  0.00000000E+00
  0.00000000E+00  0.00000000E+00  0.00000000E+00
  0.00000000E+00  0.00000000E+00  0.00000000E+00
  0.00000000E+00  0.00000000E+00  0.00000000E+00
  0.00000000E+00  0.00000000E+00  0.00000000E+00
  0.00000000E+00  0.00000000E+00  0.00000000E+00
  0.00000000E+00  0.00000000E+00  0.00000000E+00
  0.00000000E+00  0.00000000E+00  0.00000000E+00
  0.00000000E+00  0.00000000E+00  0.00000000E+00
  0.00000000E+00  0.00000000E+00  0.00000000E+00
  0.00000000E+00  0.00000000E+00  0.00000000E+00
  0.00000000E+00  0.00000000E+00  0.00000000E+00
  0.00000000E+00  0.00000000E+00  0.00000000E+00
  0.00000000E+00  0.00000000E+00  0.00000000E+00
  0.00000000E+00  0.00000000E+00  0.00000000E+00
  0.00000000E+00  0.00000000E+00  0.00000000E+00
  0.00000000E+00  0.00000000E+00  0.00000000E+00
  0.00000000E+00  0.00000000E+00  0.00000000E+00
  0.00000000E+00  0.00000000E+00  0.00000000E+00
  0.00000000E+00  0.00000000E+00  0.00000000E+00
  0.00000000E+00  0.00000000E+00  0.00000000E+00
  0.00000000E+00  0.00000000E+00  0.00000000E+00
  0.00000000E+00  0.00000000E+00  0.00000000E+00
  0.00000000E+00  0.00000000E+00  0.00000000E+00
  0.00000000E+00  0.00000000E+00  0.00000000E+00
  0.00000000E+00  0.00000000E+00  0.00000000E+00
  0.00000000E+00  0.00000000E+00  0.00000000E+00
  0.00000000E+00  0.00000000E+00  0.00000000E+00
  0.00000000E+00  0.00000000E+00  0.00000000E+00
