9-TiZrHfTaW                             
   1.00000000000000     
     8.9589959838137752   -0.0043166483257510   -0.0028408717862337
    -0.0043538864014782    9.0306084904021766   -0.0106426121413709
    -0.0028301057727485   -0.0106207513467555    8.9528224397604266
   Ti   Ta   Hf   N    C    Zr   W 
     7     6     6    13    19     7     6
Direct
  0.0005202714778894 -0.0041551418994681  0.0142018110096605
  0.2382277437435856 -0.0069342840474437  0.2523262166327813
  0.2636272526146118  0.5049945018962581  0.2502286072249050
  0.5012345799042311  0.4990250831104688 -0.0013279314208984
  0.4934555322577409  0.2609652938459898  0.7512696150378306
  0.0050279365504466  0.4970349396881878  0.4984727506616573
  0.5033482819568909  0.7367333525580888  0.7472650633212796
 -0.0013889705654763  0.2395690574714969  0.2615812916522124
  0.7527922316500095  0.7442055095842576 -0.0003942798062849
  0.0049099272874393  0.2627102058181420  0.7377612693543922
  0.7575675546708710  0.2673672941195670  0.5029001886154776
 -0.0030148918949211  0.7368127281903185  0.7470047887700455
  0.2592317483912902  0.5000794357092921  0.7499355600359251
  0.2462674571633465  0.2522873975893959  0.0019560940115250
  0.5005869248844721  0.2521530035553975  0.2507149193459508
  0.7559157317346975 -0.0080381855757435  0.2535806842407981
  0.7516001633037759  0.2547096271348840 -0.0047287817067232
  0.2482608123409020  0.7482848806835177 -0.0012550316219354
  0.2467758875025041  0.2528358674625091  0.4978882733523507
  0.2465737153173517  0.2501271563684539  0.2499844109137713
  0.2434650258805524  0.0003755505929079  0.0080233891709977
 -0.0005946348694487  0.2428891221919235  0.0015576975413276
  0.7520651383870196  0.2497982165258649  0.2524911678782791
  0.7569906934643965  0.0002418737690681  0.0027543618051344
  0.5013831923504964  0.0054596178416654  0.2490917009622959
 -0.0008646589690317  0.4954191839819199  0.2584820950548025
  0.5031651417783044  0.7447819220380393 -0.0063416856295843
 -0.0031566372030188  0.0010277423905617  0.7518030950137237
  0.7486427172732223  0.2520168552245729  0.7465014504979059
  0.7537038194859721  0.0042660293635235  0.4970929715743493
  0.5053040954232391  0.2533439544791920  0.5023350797222305
  0.5022546192268428  0.0011593353476585  0.7496857776307410
  0.0043721701207677  0.0005174611269358  0.2457541846847923
  0.5012472091417850  0.2548163347302897 -0.0033224976526772
  0.2422462112849296  0.7486903794484365  0.2483067633781506
  0.2550409456136324  0.4998378512976987  0.0036900489165842
 -0.0023494126129629  0.7565753252722800  0.0011605743234000
  0.7550423513586100  0.7433511275828313  0.2505005567315910
  0.7437199151951784  0.5017994381444627  0.0010391652285037
  0.4979638819872285  0.4987916134279841  0.2501544903503692
  0.2515888656408614  0.2541354206518388  0.7497138690637110
  0.2435182405297383  0.0012372852926400  0.4922817810469883
  0.0003785160512103  0.2528950108951973  0.5007839465263237
  0.2504018699091745  0.7448807269132782  0.7518821007350261
  0.2513723631601139  0.4988831354219152  0.4965505647015506
 -0.0076292883128672  0.7521039593380225  0.4981724076574396
 -0.0015865257970407  0.4991945565222319  0.7422793121276636
  0.7464729433961855  0.7450102136827558  0.7503955247948424
  0.7536601038284841  0.4992845163169876  0.4989212998661146
  0.5037389965093449  0.7444754845822874  0.5073352605319675
  0.5025818717069932  0.4992364634672871  0.7492097154945777
  0.4996240082229523  0.0023909403916325 -0.0023430328081341
  0.0004393146553790  0.5006804358689765  0.0048861444480552
  0.5003936296184645  0.7474471507518475  0.2520116373369797
  0.2461629607303714 -0.0002012425851751  0.7493621887358003
  0.4928024583881718 -0.0049329383384753  0.5022075013311765
  0.7523157858084843 -0.0085648178695635  0.7459526090710036
  0.2456839396221239  0.7462267579023818  0.5015675610447071
  0.0024242727507053  0.7686531439761244  0.2520708177965360
  0.7313058438145403  0.5089691022002019  0.2416776264274602
  0.0097738981293928  0.0053189250546267  0.4831938356788647
  0.5026216687886607  0.5084367704677811  0.5019978082523887
  0.7405315378260501  0.5108222602154809  0.7584470121899359
  0.7502617224131871  0.7274907528383869  0.5013172731414381
 
  0.00000000E+00  0.00000000E+00  0.00000000E+00
  0.00000000E+00  0.00000000E+00  0.00000000E+00
  0.00000000E+00  0.00000000E+00  0.00000000E+00
  0.00000000E+00  0.00000000E+00  0.00000000E+00
  0.00000000E+00  0.00000000E+00  0.00000000E+00
  0.00000000E+00  0.00000000E+00  0.00000000E+00
  0.00000000E+00  0.00000000E+00  0.00000000E+00
  0.00000000E+00  0.00000000E+00  0.00000000E+00
  0.00000000E+00  0.00000000E+00  0.00000000E+00
  0.00000000E+00  0.00000000E+00  0.00000000E+00
  0.00000000E+00  0.00000000E+00  0.00000000E+00
  0.00000000E+00  0.00000000E+00  0.00000000E+00
  0.00000000E+00  0.00000000E+00  0.00000000E+00
  0.00000000E+00  0.00000000E+00  0.00000000E+00
  0.00000000E+00  0.00000000E+00  0.00000000E+00
  0.00000000E+00  0.00000000E+00  0.00000000E+00
  0.00000000E+00  0.00000000E+00  0.00000000E+00
  0.00000000E+00  0.00000000E+00  0.00000000E+00
  0.00000000E+00  0.00000000E+00  0.00000000E+00
  0.00000000E+00  0.00000000E+00  0.00000000E+00
  0.00000000E+00  0.00000000E+00  0.00000000E+00
  0.00000000E+00  0.00000000E+00  0.00000000E+00
  0.00000000E+00  0.00000000E+00  0.00000000E+00
  0.00000000E+00  0.00000000E+00  0.00000000E+00
  0.00000000E+00  0.00000000E+00  0.00000000E+00
  0.00000000E+00  0.00000000E+00  0.00000000E+00
  0.00000000E+00  0.00000000E+00  0.00000000E+00
  0.00000000E+00  0.00000000E+00  0.00000000E+00
  0.00000000E+00  0.00000000E+00  0.00000000E+00
  0.00000000E+00  0.00000000E+00  0.00000000E+00
  0.00000000E+00  0.00000000E+00  0.00000000E+00
  0.00000000E+00  0.00000000E+00  0.00000000E+00
  0.00000000E+00  0.00000000E+00  0.00000000E+00
  0.00000000E+00  0.00000000E+00  0.00000000E+00
  0.00000000E+00  0.00000000E+00  0.00000000E+00
  0.00000000E+00  0.00000000E+00  0.00000000E+00
  0.00000000E+00  0.00000000E+00  0.00000000E+00
  0.00000000E+00  0.00000000E+00  0.00000000E+00
  0.00000000E+00  0.00000000E+00  0.00000000E+00
  0.00000000E+00  0.00000000E+00  0.00000000E+00
  0.00000000E+00  0.00000000E+00  0.00000000E+00
  0.00000000E+00  0.00000000E+00  0.00000000E+00
  0.00000000E+00  0.00000000E+00  0.00000000E+00
  0.00000000E+00  0.00000000E+00  0.00000000E+00
  0.00000000E+00  0.00000000E+00  0.00000000E+00
  0.00000000E+00  0.00000000E+00  0.00000000E+00
  0.00000000E+00  0.00000000E+00  0.00000000E+00
  0.00000000E+00  0.00000000E+00  0.00000000E+00
  0.00000000E+00  0.00000000E+00  0.00000000E+00
  0.00000000E+00  0.00000000E+00  0.00000000E+00
  0.00000000E+00  0.00000000E+00  0.00000000E+00
  0.00000000E+00  0.00000000E+00  0.00000000E+00
  0.00000000E+00  0.00000000E+00  0.00000000E+00
  0.00000000E+00  0.00000000E+00  0.00000000E+00
  0.00000000E+00  0.00000000E+00  0.00000000E+00
  0.00000000E+00  0.00000000E+00  0.00000000E+00
  0.00000000E+00  0.00000000E+00  0.00000000E+00
  0.00000000E+00  0.00000000E+00  0.00000000E+00
  0.00000000E+00  0.00000000E+00  0.00000000E+00
  0.00000000E+00  0.00000000E+00  0.00000000E+00
  0.00000000E+00  0.00000000E+00  0.00000000E+00
  0.00000000E+00  0.00000000E+00  0.00000000E+00
  0.00000000E+00  0.00000000E+00  0.00000000E+00
  0.00000000E+00  0.00000000E+00  0.00000000E+00
