TiZrHfTaMo
1.0
       11.2399997711         0.0000000000         0.0000000000
        0.0000000000        11.2399997711         0.0000000000
        0.0000000000         0.0000000000        11.2399997711
   Ti   Ta   Hf    N    C   Zr   Mo
    7    6    6   13   19    7    6
Direct
     0.000000000         0.000000000         0.000000000
     0.250000000        -0.000000000         0.250000000
     0.250000000         0.500000000         0.250000000
     0.500000000         0.500000000         0.000000000
     0.500000000         0.250000000         0.750000042
    -0.000000000         0.500000000         0.500000000
     0.500000000         0.750000042         0.750000042
    -0.000000000         0.250000000         0.250000000
     0.750000042         0.750000042         0.000000000
    -0.000000000         0.250000000         0.750000042
     0.750000042         0.250000000         0.500000000
    -0.000000000         0.750000042         0.750000042
     0.250000000         0.500000000         0.750000042
     0.250000000         0.250000000         0.000000000
     0.500000000         0.250000000         0.250000000
     0.750000042        -0.000000000         0.250000000
     0.750000042         0.250000000         0.000000000
     0.250000000         0.750000042         0.000000000
     0.250000000         0.250000000         0.500000000
     0.250000000         0.250000000         0.250000000
     0.250000000         0.000000000         0.000000000
    -0.000000000         0.250000000         0.000000000
     0.750000042         0.250000000         0.250000000
     0.750000042         0.000000000         0.000000000
     0.500000000        -0.000000000         0.250000000
    -0.000000000         0.500000000         0.250000000
     0.500000000         0.750000042         0.000000000
    -0.000000000        -0.000000000         0.750000042
     0.750000042         0.250000000         0.750000042
     0.750000042        -0.000000000         0.500000000
     0.500000000         0.250000000         0.500000000
     0.500000000        -0.000000000         0.750000042
    -0.000000000        -0.000000000         0.250000000
     0.500000000         0.250000000         0.000000000
     0.250000000         0.750000042         0.250000000
     0.250000000         0.500000000         0.000000000
    -0.000000000         0.750000042         0.000000000
     0.750000042         0.750000042         0.250000000
     0.750000042         0.500000000         0.000000000
     0.500000000         0.500000000         0.250000000
     0.250000000         0.250000000         0.750000042
     0.250000000        -0.000000000         0.500000000
    -0.000000000         0.250000000         0.500000000
     0.250000000         0.750000042         0.750000042
     0.250000000         0.500000000         0.500000000
    -0.000000000         0.750000042         0.500000000
    -0.000000000         0.500000000         0.750000042
     0.750000042         0.750000042         0.750000042
     0.750000042         0.500000000         0.500000000
     0.500000000         0.750000042         0.500000000
     0.500000000         0.500000000         0.750000042
     0.500000000         0.000000000         0.000000000
    -0.000000000         0.500000000         0.000000000
     0.500000000         0.750000042         0.250000000
     0.250000000        -0.000000000         0.750000042
     0.500000000        -0.000000000         0.500000000
     0.750000042        -0.000000000         0.750000042
     0.250000000         0.750000042         0.500000000
    -0.000000000         0.750000042         0.250000000
     0.750000042         0.500000000         0.250000000
    -0.000000000        -0.000000000         0.500000000
     0.500000000         0.500000000         0.500000000
     0.750000042         0.500000000         0.750000042
     0.750000042         0.750000042         0.500000000
