57-TiZrHfCrMo                           
   1.00000000000000     
     8.8336029205071682    0.0223939293472277   -0.0193640010864110
     0.0287092039084982    8.8803818119054085    0.0093332363785233
     0.0123345641238319   -0.0060529449140680    8.8691108988257934
   Zr   Hf   Ti   N    C    Cr   Mo
     7     6     7    13    19     6     6
Direct
  0.9991088128688566  0.9923572198270909  0.0020726497683487
  0.2636061418831027  0.0002632999370926  0.2435573749094918
  0.2471956707891929  0.4959912068531440  0.2483620088708459
  0.5023447273771666  0.4964593516990762  0.0016968940950329
  0.5064634309205538  0.2468257738923249  0.7466418300609582
  0.9970957262639230  0.5000998682767820  0.5033339254667153
  0.4985750558019754  0.7577467192283026  0.7454885035099230
  0.9955432405132000  0.2501795019369177  0.2434241700851871
  0.7430675892469730  0.7515542602296134  0.0089391511992369
  0.9964300774116162  0.2389280022912965  0.7540597699344934
  0.7466179451485295  0.2350211071304157  0.4994512553150589
  0.9988483688180142  0.7646996152120118  0.7436781344992789
  0.2519312928828866  0.4995702111003644  0.7496583715050120
  0.2582155118876198  0.2429811110734295  0.9922614860409118
  0.5058992642915860  0.2498582616899889  0.2487086646855219
  0.7375414994851229  0.9853360240070363  0.2596238336913749
  0.7442575122525581  0.2460455289518153  0.0003702343889981
  0.2535913410629141  0.7482282492370080  0.9968066720600908
  0.2535277265607896  0.2431642592778978  0.5067674527540657
  0.2503360427400392  0.7532296570821126  0.4996022429756166
  0.2542510941172910  0.2475538069273256  0.2478629488466152
  0.2636527651871052  0.9999279117287834  0.9934751725668289
  0.9990211653451569  0.2484363200676255  0.9982274525075870
  0.7456367105889974  0.2429038135149743  0.2475874114681884
  0.7390042356921444  0.0031603300254844  0.0032791880899574
  0.5116518352168646  0.0103554912709432  0.2381622027666664
  0.9939439500060443  0.4998881721011113  0.2443784820225999
  0.4946835167689818  0.7590597295586834  0.0082885742961900
  0.9705682930220206  0.0022039600149306  0.7472044678853492
  0.7531497443821622  0.2406212408484507  0.7536216187974336
  0.7500740332206991  0.9970626471216296  0.4862293211331982
  0.4994081114809964  0.2439358872134275  0.4911279690337665
  0.5064316339330568  0.0013539982678182  0.7257210645023334
  0.9976481870546046  0.9984513545955974  0.2528534676712389
  0.5031182224369538  0.2436850979033703  0.0054464374733463
  0.2570125051682486  0.7481344320062416  0.2498453822028737
  0.2386009721952613  0.5002044117582242  0.9974443777656554
  0.0035845574494963  0.7390031026340973  0.0020116331441131
  0.7418262414057557  0.7499676589191046  0.2554964191607061
  0.7649633261890784  0.4957401988092695  0.0046948502731124
  0.5008822446536039  0.4995279309133868  0.2554090114858239
  0.2520390395397312  0.2406277568870071  0.7501460468120484
  0.2541138437294966  0.9991195969015897  0.5128107403856064
  0.0039435696652887  0.2444659705789030  0.4990237729648595
  0.2492804504221743  0.7632366932633192  0.7531039799245439
  0.2564178403069947  0.4997022108285747  0.5005735008425047
  0.9994762557676041  0.7582492272399645  0.4956050949078303
  0.9966045827003394  0.5028636244403225  0.7616579365615019
  0.7486868660637466  0.7601458195822915  0.7479872358854581
  0.7448536729100852  0.4977605218918044  0.5054609616657098
  0.4966630515245248  0.7665728868003447  0.4837782569879657
  0.5057175389274645  0.5025260062935312  0.7443982269125969
  0.5080409940451246  0.0192030861762011  0.0022126553023807
  0.9984391560077437  0.5193774056655058  0.9787502023329223
  0.4800998580083351  0.7264183880393017  0.2607617459930178
  0.2884882627728259  0.0058967312520519  0.7673825539207362
  0.4706914059240355  0.9906954914961537  0.5102759865260648
  0.7277801349707166  0.9821348652806700  0.7795761287940552
  0.0168435803102323  0.7571018443179393  0.2577597640639269
  0.7376800350538135  0.5111161139992908  0.2605936334564606
  0.0222199957796566  0.0004901784073990  0.4866404386313272
  0.5066083060416436  0.5219090948711514  0.4939014566505390
  0.7517443768115055  0.5218000729554652  0.7553836452149312
  0.7442572349957768  0.7388694386970377  0.4893440923532351
 
  0.00000000E+00  0.00000000E+00  0.00000000E+00
  0.00000000E+00  0.00000000E+00  0.00000000E+00
  0.00000000E+00  0.00000000E+00  0.00000000E+00
  0.00000000E+00  0.00000000E+00  0.00000000E+00
  0.00000000E+00  0.00000000E+00  0.00000000E+00
  0.00000000E+00  0.00000000E+00  0.00000000E+00
  0.00000000E+00  0.00000000E+00  0.00000000E+00
  0.00000000E+00  0.00000000E+00  0.00000000E+00
  0.00000000E+00  0.00000000E+00  0.00000000E+00
  0.00000000E+00  0.00000000E+00  0.00000000E+00
  0.00000000E+00  0.00000000E+00  0.00000000E+00
  0.00000000E+00  0.00000000E+00  0.00000000E+00
  0.00000000E+00  0.00000000E+00  0.00000000E+00
  0.00000000E+00  0.00000000E+00  0.00000000E+00
  0.00000000E+00  0.00000000E+00  0.00000000E+00
  0.00000000E+00  0.00000000E+00  0.00000000E+00
  0.00000000E+00  0.00000000E+00  0.00000000E+00
  0.00000000E+00  0.00000000E+00  0.00000000E+00
  0.00000000E+00  0.00000000E+00  0.00000000E+00
  0.00000000E+00  0.00000000E+00  0.00000000E+00
  0.00000000E+00  0.00000000E+00  0.00000000E+00
  0.00000000E+00  0.00000000E+00  0.00000000E+00
  0.00000000E+00  0.00000000E+00  0.00000000E+00
  0.00000000E+00  0.00000000E+00  0.00000000E+00
  0.00000000E+00  0.00000000E+00  0.00000000E+00
  0.00000000E+00  0.00000000E+00  0.00000000E+00
  0.00000000E+00  0.00000000E+00  0.00000000E+00
  0.00000000E+00  0.00000000E+00  0.00000000E+00
  0.00000000E+00  0.00000000E+00  0.00000000E+00
  0.00000000E+00  0.00000000E+00  0.00000000E+00
  0.00000000E+00  0.00000000E+00  0.00000000E+00
  0.00000000E+00  0.00000000E+00  0.00000000E+00
  0.00000000E+00  0.00000000E+00  0.00000000E+00
  0.00000000E+00  0.00000000E+00  0.00000000E+00
  0.00000000E+00  0.00000000E+00  0.00000000E+00
  0.00000000E+00  0.00000000E+00  0.00000000E+00
  0.00000000E+00  0.00000000E+00  0.00000000E+00
  0.00000000E+00  0.00000000E+00  0.00000000E+00
  0.00000000E+00  0.00000000E+00  0.00000000E+00
  0.00000000E+00  0.00000000E+00  0.00000000E+00
  0.00000000E+00  0.00000000E+00  0.00000000E+00
  0.00000000E+00  0.00000000E+00  0.00000000E+00
  0.00000000E+00  0.00000000E+00  0.00000000E+00
  0.00000000E+00  0.00000000E+00  0.00000000E+00
  0.00000000E+00  0.00000000E+00  0.00000000E+00
  0.00000000E+00  0.00000000E+00  0.00000000E+00
  0.00000000E+00  0.00000000E+00  0.00000000E+00
  0.00000000E+00  0.00000000E+00  0.00000000E+00
  0.00000000E+00  0.00000000E+00  0.00000000E+00
  0.00000000E+00  0.00000000E+00  0.00000000E+00
  0.00000000E+00  0.00000000E+00  0.00000000E+00
  0.00000000E+00  0.00000000E+00  0.00000000E+00
  0.00000000E+00  0.00000000E+00  0.00000000E+00
  0.00000000E+00  0.00000000E+00  0.00000000E+00
  0.00000000E+00  0.00000000E+00  0.00000000E+00
  0.00000000E+00  0.00000000E+00  0.00000000E+00
  0.00000000E+00  0.00000000E+00  0.00000000E+00
  0.00000000E+00  0.00000000E+00  0.00000000E+00
  0.00000000E+00  0.00000000E+00  0.00000000E+00
  0.00000000E+00  0.00000000E+00  0.00000000E+00
  0.00000000E+00  0.00000000E+00  0.00000000E+00
  0.00000000E+00  0.00000000E+00  0.00000000E+00
  0.00000000E+00  0.00000000E+00  0.00000000E+00
  0.00000000E+00  0.00000000E+00  0.00000000E+00
