38-ZrHfVNbW                             
   1.00000000000000     
     8.9479138622380869   -0.0078930898452259    0.0024671976466867
    -0.0077678553803634    9.0717947086246156   -0.0097209537391346
     0.0024902068590371   -0.0097545290457933    8.9228376501457110
   Zr   W    Hf   N    C    Nb   V 
     7     6     7    13    19     6     6
Direct
 -0.0068711159695746 -0.0030535447178744 -0.0028444118686241
  0.2516466182731983 -0.0007904299023541  0.2511686507601127
  0.2535680963409772  0.5016412932736302  0.2512940302382320
  0.5009551530572880  0.5016944826989197  0.0000024132308450
  0.5014295263548235  0.2473273534502774  0.7453620962267624
 -0.0047211495575972  0.5033443041525597  0.4895235925317428
  0.5000522018103127  0.7541961033074666  0.7507161118123949
 -0.0066824981479702  0.2287376163933637  0.2714554960412925
  0.7659722704267594  0.7331489134021598  0.0093071558143634
  0.0073073339822931  0.2808798685097116  0.7362626138965866
  0.7551966406548386  0.2773770420569541  0.5058967031367970
 -0.0080348992993502  0.7297957635118423  0.7456023793943884
  0.2640967339408736  0.4955806032462449  0.7454884581604240
  0.2459924356911372  0.2503654498745605 -0.0019234730377201
  0.5111733763567023  0.2560330949066410  0.2551379049457597
  0.7499714824385331 -0.0068600327550335  0.2644331259580205
  0.7555824160994357  0.2587297300814307 -0.0079032645580039
  0.2401787551932673  0.7484724711236093 -0.0003211182461161
  0.2523837299141273  0.2501060690624058  0.5019177903238224
  0.2431820428193646  0.7506250966647590  0.5013307958135189
  0.2483690643803749  0.2482911260321123  0.2506158347138182
  0.2546428695716023 -0.0002904057494017 -0.0035293322243316
  0.0003303391884084  0.2490924425435730 -0.0008960783273500
  0.7558563750701980  0.2481255503186699  0.2561331762964591
  0.7462610980991614 -0.0003887588021940  0.0014869575877119
  0.5052189148773432  0.0028432942790633  0.2516865627012256
 -0.0077918224300597  0.4738518438093686  0.2427213408583508
  0.5007061208955481  0.7576784607997945  0.0047616008746573
 -0.0019617406256105 -0.0015375515586527  0.7408835156266936
  0.7610436210384308  0.2428008164036675  0.7449924497879038
  0.7501350248342442  0.0009319278269848  0.5050640069935280
  0.5085639648405985  0.2407125112488052  0.4967056243863910
  0.5026049016240582  0.0006716100778846  0.7485458362607816
 -0.0026368688210829 -0.0034045871105407  0.2601238638890633
  0.5032780875733592  0.2460312078158741  0.0022714274615140
  0.2464291664173548  0.7509579762623775  0.2495709274342080
  0.2443273615578611  0.4996766642229613 -0.0059208605619888
 -0.0042610137693976  0.7447998220866650  0.0057442998831596
  0.7572934212787071  0.7421175149184531  0.2531391086309251
  0.7535551595640227  0.5036363141544380 -0.0014064900314005
  0.5095607818418859  0.5032152671794766  0.2591750635685695
  0.2440771041936597  0.2516620903287839  0.7496939503424410
  0.2466444222260567 -0.0007965062098933  0.5022582167082222
 -0.0041113529086583  0.2409973952906957  0.5057214999417772
  0.2399969929739464  0.7497208725040103  0.7506797336180292
  0.2586794176076894  0.5008829199700440  0.5036999281139022
 -0.0106727891826072  0.7596116411520076  0.4994857068249287
 -0.0051969960360737  0.5029430076814477  0.7491561617241383
  0.7510016517269779  0.7421344289507088  0.7489396319117697
  0.7405141894012773  0.5030792738664739  0.4975003211967019
  0.5042310895131218  0.7457826653248302  0.4975558508629937
  0.5026138403763046  0.5015599606009966  0.7390821286153094
  0.5086925403831792  0.0091402933059355 -0.0021091582667787
 -0.0043879302046388  0.5029545411704565  0.0047744894838204
  0.5038296562440489  0.7461523945300271  0.2528095318779213
  0.2341925118786361  0.0023905308852808  0.7439348392562843
  0.4905520593446032 -0.0152472355065805  0.5017380042642920
  0.7598171934956645 -0.0221734483529317  0.7404192232761018
 -0.0019438185049261  0.7810880185096375  0.2609746096208511
  0.7369000789118122  0.5173229998407433  0.2471138920556599
  0.0156887035379871 -0.0021092788061326  0.4971713003875807
  0.5012033725074927  0.5267755487683835  0.4982364671640870
  0.7278850443155521  0.5217023679854531  0.7457707338202055
  0.7558897128125034  0.7272618951090237  0.4916177228153282
 
  0.00000000E+00  0.00000000E+00  0.00000000E+00
  0.00000000E+00  0.00000000E+00  0.00000000E+00
  0.00000000E+00  0.00000000E+00  0.00000000E+00
  0.00000000E+00  0.00000000E+00  0.00000000E+00
  0.00000000E+00  0.00000000E+00  0.00000000E+00
  0.00000000E+00  0.00000000E+00  0.00000000E+00
  0.00000000E+00  0.00000000E+00  0.00000000E+00
  0.00000000E+00  0.00000000E+00  0.00000000E+00
  0.00000000E+00  0.00000000E+00  0.00000000E+00
  0.00000000E+00  0.00000000E+00  0.00000000E+00
  0.00000000E+00  0.00000000E+00  0.00000000E+00
  0.00000000E+00  0.00000000E+00  0.00000000E+00
  0.00000000E+00  0.00000000E+00  0.00000000E+00
  0.00000000E+00  0.00000000E+00  0.00000000E+00
  0.00000000E+00  0.00000000E+00  0.00000000E+00
  0.00000000E+00  0.00000000E+00  0.00000000E+00
  0.00000000E+00  0.00000000E+00  0.00000000E+00
  0.00000000E+00  0.00000000E+00  0.00000000E+00
  0.00000000E+00  0.00000000E+00  0.00000000E+00
  0.00000000E+00  0.00000000E+00  0.00000000E+00
  0.00000000E+00  0.00000000E+00  0.00000000E+00
  0.00000000E+00  0.00000000E+00  0.00000000E+00
  0.00000000E+00  0.00000000E+00  0.00000000E+00
  0.00000000E+00  0.00000000E+00  0.00000000E+00
  0.00000000E+00  0.00000000E+00  0.00000000E+00
  0.00000000E+00  0.00000000E+00  0.00000000E+00
  0.00000000E+00  0.00000000E+00  0.00000000E+00
  0.00000000E+00  0.00000000E+00  0.00000000E+00
  0.00000000E+00  0.00000000E+00  0.00000000E+00
  0.00000000E+00  0.00000000E+00  0.00000000E+00
  0.00000000E+00  0.00000000E+00  0.00000000E+00
  0.00000000E+00  0.00000000E+00  0.00000000E+00
  0.00000000E+00  0.00000000E+00  0.00000000E+00
  0.00000000E+00  0.00000000E+00  0.00000000E+00
  0.00000000E+00  0.00000000E+00  0.00000000E+00
  0.00000000E+00  0.00000000E+00  0.00000000E+00
  0.00000000E+00  0.00000000E+00  0.00000000E+00
  0.00000000E+00  0.00000000E+00  0.00000000E+00
  0.00000000E+00  0.00000000E+00  0.00000000E+00
  0.00000000E+00  0.00000000E+00  0.00000000E+00
  0.00000000E+00  0.00000000E+00  0.00000000E+00
  0.00000000E+00  0.00000000E+00  0.00000000E+00
  0.00000000E+00  0.00000000E+00  0.00000000E+00
  0.00000000E+00  0.00000000E+00  0.00000000E+00
  0.00000000E+00  0.00000000E+00  0.00000000E+00
  0.00000000E+00  0.00000000E+00  0.00000000E+00
  0.00000000E+00  0.00000000E+00  0.00000000E+00
  0.00000000E+00  0.00000000E+00  0.00000000E+00
  0.00000000E+00  0.00000000E+00  0.00000000E+00
  0.00000000E+00  0.00000000E+00  0.00000000E+00
  0.00000000E+00  0.00000000E+00  0.00000000E+00
  0.00000000E+00  0.00000000E+00  0.00000000E+00
  0.00000000E+00  0.00000000E+00  0.00000000E+00
  0.00000000E+00  0.00000000E+00  0.00000000E+00
  0.00000000E+00  0.00000000E+00  0.00000000E+00
  0.00000000E+00  0.00000000E+00  0.00000000E+00
  0.00000000E+00  0.00000000E+00  0.00000000E+00
  0.00000000E+00  0.00000000E+00  0.00000000E+00
  0.00000000E+00  0.00000000E+00  0.00000000E+00
  0.00000000E+00  0.00000000E+00  0.00000000E+00
  0.00000000E+00  0.00000000E+00  0.00000000E+00
  0.00000000E+00  0.00000000E+00  0.00000000E+00
  0.00000000E+00  0.00000000E+00  0.00000000E+00
  0.00000000E+00  0.00000000E+00  0.00000000E+00
