91-HfVTaCrMo                            
   1.00000000000000     
     8.7092868169566930   -0.0196349317704768   -0.0023555186159898
    -0.0141385552498175    8.7486416571962469    0.0107416327909496
     0.0290150548330564   -0.0045973096368900    8.7673730593564674
   V    Ta   Hf   N    C    Cr   Mo
     7     6     7    13    19     6     6
Direct
  0.0057456444600186  0.9796683600344037  0.0242910036357290
  0.2352488542598491  0.9778087842947863  0.2496010793132772
  0.2683745170136050  0.5182051044699705  0.2446680955882642
  0.4995031703413719  0.4781077764027508  0.9908242252131926
  0.4795880356489554  0.2390323378148606  0.7566311595307110
  0.0014273639421787  0.4987762774171220  0.5291327808490228
  0.5075279957701495  0.7528996250825897  0.7319064593489627
 -0.0020996609715150  0.2711382038307809  0.2564558718323577
  0.7427792655244476  0.7491804209012499 -0.0010080549514929
  0.0105202434953740  0.2346643797251289  0.7459818443359199
  0.7486304528985319  0.2530007487518927  0.5146838142849892
  0.0003082185903209  0.7606350368166812  0.7478818713405241
  0.2561869904434536  0.5034762276489885  0.7535341061809055
  0.2430698428329999  0.2442868444815759  0.0026584450049702
  0.4945147661300367  0.2423814648391205  0.2482080786381065
  0.7394481213511216  0.9891989687497940  0.2580737335400609
  0.7540934650840591  0.2485021806372086  0.9903630537470604
  0.2696180330436471  0.7576685770535775 -0.0012955181029393
  0.2522015276715255  0.2516649975511946  0.4980219931541958
  0.2506665659175171  0.7501709535002884  0.4982918549486922
  0.2442976209540444  0.2522130994279173  0.2495945999836217
  0.2466320064472757  0.0002424070160017  0.0011108773959398
 -0.0014500694702586  0.2405809040119353  0.0033904134553172
  0.7485739080369940  0.2447238710587019  0.2521453852347140
  0.7543135678949302  0.9962612532704666 -0.0025665594739236
  0.4947336509039461  0.9977471758396586  0.2259361367590703
  0.0013973851097555  0.4985259336693298  0.2464398519178216
  0.5097124347755601  0.7560164394965936 -0.0165968690217012
  0.0039046259090821  0.0002146297483575  0.7537991588451423
  0.7491687746620482  0.2410151887722139  0.7478620655457149
  0.7460093393683535  0.0072446943434916  0.5041559861449427
  0.5037688265709026  0.2441502321858907  0.5047818152017870
  0.5020974846464722  0.0020253745840856  0.7539140056075095
  0.0004011016596812  0.0043221533317798  0.2473102685222242
  0.4990724874692705  0.2498453538600794 -0.0082452803886112
  0.2659963151270528  0.7513826860116773  0.2487892275264691
  0.2473744942136484  0.5025228523478471  0.0044665582229826
  0.0030244808498109  0.7500843691586939  0.0000263143617460
  0.7424638839144391  0.7415758495074736  0.2468650802342353
  0.7571133945812530  0.5025240652611284  0.0021743577410215
  0.4900468455152551  0.5070756128139008  0.2422083718804179
  0.2546727689420931  0.2443511166855454  0.7511387836623576
  0.2563333732673469 -0.0000704314068190  0.4950426019746481
  0.9973109963734856  0.2541717425655508  0.5008412583074121
  0.2575550437360880  0.7576930035533814  0.7484654702246852
  0.2457895528081097  0.5014451468579597  0.4945574740174479
  0.9959628453977013  0.7465370102952916  0.4995049097036057
  0.0000506924471208  0.5007915934955529  0.7535148466081671
  0.7452634532806839  0.7627551191763731  0.7427467183374289
  0.7591210777756308  0.4949235888185823  0.4967173404351471
  0.5062902113890657  0.7701196027091650  0.4959772467683290
  0.5038797979769790  0.5000123806971910  0.7517718336557988
  0.5147700947723497  0.0225750704358957  0.9891361218055115
  0.0019550948609144  0.5283322684556220  0.9704701940865472
  0.5051377689953133  0.7302237940230685  0.2805336765289715
  0.2606597548482859  0.0006893181869275  0.7396226246347946
  0.4725151752924314  0.9953991972662375  0.5363991070911724
  0.7194318741275472  0.9806744240321158  0.7764337376504313
  0.0043847631197545  0.7538438483288754  0.2521429462293794
  0.7226169934117376  0.5076260169290306  0.2444707695594992
  0.0137635484094107  0.0012208381833833  0.4832315960176740
  0.5022015625493063  0.5109794076197463  0.4998847632086579
  0.7443411086459126  0.5175655116047500  0.7545301875268713
  0.7499868509855462  0.7273787667653888  0.4963982648365313
 
  0.00000000E+00  0.00000000E+00  0.00000000E+00
  0.00000000E+00  0.00000000E+00  0.00000000E+00
  0.00000000E+00  0.00000000E+00  0.00000000E+00
  0.00000000E+00  0.00000000E+00  0.00000000E+00
  0.00000000E+00  0.00000000E+00  0.00000000E+00
  0.00000000E+00  0.00000000E+00  0.00000000E+00
  0.00000000E+00  0.00000000E+00  0.00000000E+00
  0.00000000E+00  0.00000000E+00  0.00000000E+00
  0.00000000E+00  0.00000000E+00  0.00000000E+00
  0.00000000E+00  0.00000000E+00  0.00000000E+00
  0.00000000E+00  0.00000000E+00  0.00000000E+00
  0.00000000E+00  0.00000000E+00  0.00000000E+00
  0.00000000E+00  0.00000000E+00  0.00000000E+00
  0.00000000E+00  0.00000000E+00  0.00000000E+00
  0.00000000E+00  0.00000000E+00  0.00000000E+00
  0.00000000E+00  0.00000000E+00  0.00000000E+00
  0.00000000E+00  0.00000000E+00  0.00000000E+00
  0.00000000E+00  0.00000000E+00  0.00000000E+00
  0.00000000E+00  0.00000000E+00  0.00000000E+00
  0.00000000E+00  0.00000000E+00  0.00000000E+00
  0.00000000E+00  0.00000000E+00  0.00000000E+00
  0.00000000E+00  0.00000000E+00  0.00000000E+00
  0.00000000E+00  0.00000000E+00  0.00000000E+00
  0.00000000E+00  0.00000000E+00  0.00000000E+00
  0.00000000E+00  0.00000000E+00  0.00000000E+00
  0.00000000E+00  0.00000000E+00  0.00000000E+00
  0.00000000E+00  0.00000000E+00  0.00000000E+00
  0.00000000E+00  0.00000000E+00  0.00000000E+00
  0.00000000E+00  0.00000000E+00  0.00000000E+00
  0.00000000E+00  0.00000000E+00  0.00000000E+00
  0.00000000E+00  0.00000000E+00  0.00000000E+00
  0.00000000E+00  0.00000000E+00  0.00000000E+00
  0.00000000E+00  0.00000000E+00  0.00000000E+00
  0.00000000E+00  0.00000000E+00  0.00000000E+00
  0.00000000E+00  0.00000000E+00  0.00000000E+00
  0.00000000E+00  0.00000000E+00  0.00000000E+00
  0.00000000E+00  0.00000000E+00  0.00000000E+00
  0.00000000E+00  0.00000000E+00  0.00000000E+00
  0.00000000E+00  0.00000000E+00  0.00000000E+00
  0.00000000E+00  0.00000000E+00  0.00000000E+00
  0.00000000E+00  0.00000000E+00  0.00000000E+00
  0.00000000E+00  0.00000000E+00  0.00000000E+00
  0.00000000E+00  0.00000000E+00  0.00000000E+00
  0.00000000E+00  0.00000000E+00  0.00000000E+00
  0.00000000E+00  0.00000000E+00  0.00000000E+00
  0.00000000E+00  0.00000000E+00  0.00000000E+00
  0.00000000E+00  0.00000000E+00  0.00000000E+00
  0.00000000E+00  0.00000000E+00  0.00000000E+00
  0.00000000E+00  0.00000000E+00  0.00000000E+00
  0.00000000E+00  0.00000000E+00  0.00000000E+00
  0.00000000E+00  0.00000000E+00  0.00000000E+00
  0.00000000E+00  0.00000000E+00  0.00000000E+00
  0.00000000E+00  0.00000000E+00  0.00000000E+00
  0.00000000E+00  0.00000000E+00  0.00000000E+00
  0.00000000E+00  0.00000000E+00  0.00000000E+00
  0.00000000E+00  0.00000000E+00  0.00000000E+00
  0.00000000E+00  0.00000000E+00  0.00000000E+00
  0.00000000E+00  0.00000000E+00  0.00000000E+00
  0.00000000E+00  0.00000000E+00  0.00000000E+00
  0.00000000E+00  0.00000000E+00  0.00000000E+00
  0.00000000E+00  0.00000000E+00  0.00000000E+00
  0.00000000E+00  0.00000000E+00  0.00000000E+00
  0.00000000E+00  0.00000000E+00  0.00000000E+00
  0.00000000E+00  0.00000000E+00  0.00000000E+00
