67-TiHfNbCrMo                           
   1.00000000000000     
     8.6702748491155894    0.0312670089627541   -0.0118724450867075
     0.0374915287187698    8.7089368145337200    0.0132811676551819
     0.0192041158346759   -0.0019796282616742    8.6599674206032855
   Hf   Nb   Ti   N    C    Cr   Mo
     7     6     7    13    19     6     6
Direct
  0.9977986648201512  0.9962423052728269  0.9970372171382296
  0.2673434040362760  0.9990448822951069  0.2470613865304721
  0.2400639553685409  0.4968176524334536  0.2449575001390863
  0.5051908457395468  0.5003389910974482  0.0007064137428598
  0.5074749183182327  0.2464796246503825  0.7426284244640894
  0.9903658162173888  0.5073758089871792  0.4940408716917312
  0.4980724314485216  0.7570388631717392  0.7469698549171706
  0.9903784314757081  0.2350826907689484  0.2562591522656401
  0.7567361177791537  0.7449915554908686  0.0155274504269375
 -0.0014150433875008  0.2538442857342084  0.7470798739997561
  0.7483704665446003  0.2515192075164778  0.5010950132504028
  0.9990656064997657  0.7518946817373184  0.7445175481426284
  0.2516111536275298  0.4983629296460129  0.7452529722836804
  0.2555322801804879  0.2445203963771042  0.9908077505541799
  0.5097063987031050  0.2527752965656171  0.2543963976879203
  0.7417021316036564  0.9871344058077934  0.2753291835922509
  0.7492380955347566  0.2498083582322221  0.9982181788776604
  0.2478523844360316  0.7488159224943912  0.0008514719979048
  0.2522708472304580  0.2485030550346261  0.5021980633751947
  0.2512478593184157  0.7504900015207341  0.4954217886982557
  0.2529362034606824  0.2477084009977492  0.2468958049305002
  0.2556567923610917  0.0007537457146506  0.9946842008402339
  0.0017668779598003  0.2502571832851904  0.0004064879686335
  0.7453334878895252  0.2447014650617879  0.2497171865094829
  0.7460973230199895  0.0003677301948048  0.0039831755435092
  0.5110737951641119  0.0017467743277401  0.2580672001969733
  0.9890601317751614  0.4926374783030692  0.2445299225741152
  0.5007103482842612  0.7603435618776669  0.0034394446033977
  0.9902076189353515  0.0029738638445681  0.7384303725394049
  0.7528475279620939  0.2420454879280894  0.7548612750499958
  0.7518805467535161  0.0021868348641422  0.5011727467793191
  0.4970803591504870  0.2474939674280527  0.4926145152584207
  0.5213040547799728  0.0003878407401159  0.7438044207876364
  0.9982902952708583  0.9953967296721067  0.2572121208674943
  0.5032311602473593  0.2401053704262372  0.0024888823501834
  0.2537650313765591  0.7486805320104006  0.2481394498885040
  0.2434580502762827  0.5000854856356830  0.9938114027730643
  0.0038924302966260  0.7398897221491700  0.0082435099374600
  0.7531307982149976  0.7396291033397658  0.2625159932795906
  0.7624645023602039  0.4958579498674967  0.0099176122743496
  0.5009784365595495  0.4994588622877871  0.2562409746518931
  0.2497786012989353  0.2455692773112265  0.7471077778486938
  0.2530361978165244  0.9995964260446444  0.5100627467723647
  0.0026150154073027  0.2455557012471963  0.5002001624907292
  0.2443551101134853  0.7587557117005388  0.7479990321504857
  0.2542332970854334  0.5026478286869093  0.4973325725866928
  0.9936689797830962  0.7648930261615255  0.4919199540020966
  0.9927412944590867  0.5034979290300909  0.7517313122564713
  0.7501496176985533  0.7508894551141039  0.7467618097106390
  0.7355181033995990  0.5040985012865257  0.5078227619968446
  0.5033790870229236  0.7587622118552630  0.4874665603077617
  0.5109218296461071  0.5034062503138684  0.7403229956041102
  0.5216938812059833  0.0079813386059082  0.9730756354901327
  0.9907859991757602  0.5080514025339931  0.9808264970175874
  0.5055034817462366  0.7284483686344008  0.2631624622709837
  0.2220155686732947  0.0114677403513187  0.7349661374870978
  0.4780321981239618  0.9932648791258418  0.5142359991247752
  0.7426371386421624  0.9718689696585310  0.7729132678613085
  0.0066035772969322  0.7780939006628519  0.2595580939878191
  0.7275754289328793  0.5131265566497797  0.2643367399446668
  0.0227269509328077  0.0001349168397504  0.4979954811049538
  0.5077249457565671  0.5190852257457905  0.4851310970494538
  0.7567955827015006  0.5290155178352983  0.7671804448352384
  0.7337359514875432  0.7279996108139122  0.4863573807188983
 
  0.00000000E+00  0.00000000E+00  0.00000000E+00
  0.00000000E+00  0.00000000E+00  0.00000000E+00
  0.00000000E+00  0.00000000E+00  0.00000000E+00
  0.00000000E+00  0.00000000E+00  0.00000000E+00
  0.00000000E+00  0.00000000E+00  0.00000000E+00
  0.00000000E+00  0.00000000E+00  0.00000000E+00
  0.00000000E+00  0.00000000E+00  0.00000000E+00
  0.00000000E+00  0.00000000E+00  0.00000000E+00
  0.00000000E+00  0.00000000E+00  0.00000000E+00
  0.00000000E+00  0.00000000E+00  0.00000000E+00
  0.00000000E+00  0.00000000E+00  0.00000000E+00
  0.00000000E+00  0.00000000E+00  0.00000000E+00
  0.00000000E+00  0.00000000E+00  0.00000000E+00
  0.00000000E+00  0.00000000E+00  0.00000000E+00
  0.00000000E+00  0.00000000E+00  0.00000000E+00
  0.00000000E+00  0.00000000E+00  0.00000000E+00
  0.00000000E+00  0.00000000E+00  0.00000000E+00
  0.00000000E+00  0.00000000E+00  0.00000000E+00
  0.00000000E+00  0.00000000E+00  0.00000000E+00
  0.00000000E+00  0.00000000E+00  0.00000000E+00
  0.00000000E+00  0.00000000E+00  0.00000000E+00
  0.00000000E+00  0.00000000E+00  0.00000000E+00
  0.00000000E+00  0.00000000E+00  0.00000000E+00
  0.00000000E+00  0.00000000E+00  0.00000000E+00
  0.00000000E+00  0.00000000E+00  0.00000000E+00
  0.00000000E+00  0.00000000E+00  0.00000000E+00
  0.00000000E+00  0.00000000E+00  0.00000000E+00
  0.00000000E+00  0.00000000E+00  0.00000000E+00
  0.00000000E+00  0.00000000E+00  0.00000000E+00
  0.00000000E+00  0.00000000E+00  0.00000000E+00
  0.00000000E+00  0.00000000E+00  0.00000000E+00
  0.00000000E+00  0.00000000E+00  0.00000000E+00
  0.00000000E+00  0.00000000E+00  0.00000000E+00
  0.00000000E+00  0.00000000E+00  0.00000000E+00
  0.00000000E+00  0.00000000E+00  0.00000000E+00
  0.00000000E+00  0.00000000E+00  0.00000000E+00
  0.00000000E+00  0.00000000E+00  0.00000000E+00
  0.00000000E+00  0.00000000E+00  0.00000000E+00
  0.00000000E+00  0.00000000E+00  0.00000000E+00
  0.00000000E+00  0.00000000E+00  0.00000000E+00
  0.00000000E+00  0.00000000E+00  0.00000000E+00
  0.00000000E+00  0.00000000E+00  0.00000000E+00
  0.00000000E+00  0.00000000E+00  0.00000000E+00
  0.00000000E+00  0.00000000E+00  0.00000000E+00
  0.00000000E+00  0.00000000E+00  0.00000000E+00
  0.00000000E+00  0.00000000E+00  0.00000000E+00
  0.00000000E+00  0.00000000E+00  0.00000000E+00
  0.00000000E+00  0.00000000E+00  0.00000000E+00
  0.00000000E+00  0.00000000E+00  0.00000000E+00
  0.00000000E+00  0.00000000E+00  0.00000000E+00
  0.00000000E+00  0.00000000E+00  0.00000000E+00
  0.00000000E+00  0.00000000E+00  0.00000000E+00
  0.00000000E+00  0.00000000E+00  0.00000000E+00
  0.00000000E+00  0.00000000E+00  0.00000000E+00
  0.00000000E+00  0.00000000E+00  0.00000000E+00
  0.00000000E+00  0.00000000E+00  0.00000000E+00
  0.00000000E+00  0.00000000E+00  0.00000000E+00
  0.00000000E+00  0.00000000E+00  0.00000000E+00
  0.00000000E+00  0.00000000E+00  0.00000000E+00
  0.00000000E+00  0.00000000E+00  0.00000000E+00
  0.00000000E+00  0.00000000E+00  0.00000000E+00
  0.00000000E+00  0.00000000E+00  0.00000000E+00
  0.00000000E+00  0.00000000E+00  0.00000000E+00
  0.00000000E+00  0.00000000E+00  0.00000000E+00
