13-TiZrVNbW                             
   1.00000000000000     
     8.8454844671982507   -0.0060511485431682    0.0015517892701647
    -0.0060392623457079    8.8413628236391713   -0.0086001603588847
     0.0015637441220800   -0.0086013927350135    8.7982912634067976
  Ti              Nb              V               N               C               Zr              W             
     7     6     6    13    19     7     6
Direct
  0.0003753627189390  0.0036829954543040  0.0102566679190498
  0.2430487139104339  0.0090642214529109  0.2462314610741952
  0.2627129781808805  0.4862536434673053  0.2519589842968534
  0.4999561057779345  0.4992118123865880  0.9988726776741793
  0.4991364818583125  0.2567340662557564  0.7549515149131549
  0.0100455785231746  0.4943579375604202  0.4966259388551677
  0.5008431635055562  0.7437611362681094  0.7520888256753407
  0.0022072883805875  0.2417302157222307  0.2531956817429593
  0.7617106588429815  0.7480419447369552  0.0030152854547035
  0.0033628918471598  0.2604759114209603  0.7468964685368248
  0.7565614783725398  0.2647292324922191  0.4925012179632504
  0.9975586731898303  0.7373071994065727  0.7475592493830807
  0.2563985140298419  0.4977857620344049  0.7499342664873955
  0.2674597547620907  0.2636586053629854  0.9891360642940977
  0.5068594230227960  0.2604775235135083  0.2393655362769319
  0.7639634772486020  0.9932431775694459  0.2373654071934513
  0.7247385368461213  0.2507026924194026  0.0187973304954429
  0.2316881379462341  0.7292045717953539  0.0038916217601058
  0.2350981129903898  0.2488274666213199  0.5149038838194333
  0.2542602079105825  0.2488933579276665  0.2484350215152492
  0.2445498927601770  0.0094400018581752  0.0084391265386626
  0.9981457759981629  0.2406269385704081  0.0006828030275953
  0.7443691851978903  0.2417693401937228  0.2462859981790741
  0.7568772276672835  0.0069489003432212  0.0054334801079697
  0.5028862371253096  0.0095184185752889  0.2483934832472792
  0.9991497304698194  0.4990739758806341  0.2578786662877177
  0.4986735612581671  0.7460067394938534  0.9925056308950798
  0.9991618021957059  0.0020977504814447  0.7513704989751546
  0.7447722745041697  0.2531823530148429  0.7526749526237119
  0.7571497518261306  0.0002739551786122  0.4943147535472501
  0.4976930860046044  0.2574300893725688  0.4999522033413110
  0.5021568582359524  0.0043325661769086  0.7503243039750400
  0.0009723950809649  0.9997036392593187  0.2457848747336650
  0.4963305268002819  0.2585885877831646  0.0008591294370315
  0.2418001736894795  0.7478562047730863  0.2387202207925604
  0.2555869312026605  0.4996588044977597  0.0049075125307507
  0.0067014259061689  0.7539943547826774  0.0028867526696971
  0.7547987635240349  0.7472504226950047  0.2550431396996615
  0.7413611034410239  0.4905958848358050  0.0000612763602587
  0.4955835276212324  0.4924077867734159  0.2472347949518030
  0.2546200459414754  0.2524527287442642  0.7513203285813278
  0.2447907300854720  0.0096711681114545  0.4936232585102945
  0.0041187803183914  0.2538403871891054  0.5008418013426552
  0.2535737391469948  0.7462008517467679  0.7626507494103918
  0.2527725033888156  0.4875293645663786  0.4953241274384834
  0.9925146267602024  0.7542091761233719  0.4975348153729320
  0.9974825298012755  0.4985392856517704  0.7435131133983809
  0.7441734841335478  0.7455961299460194  0.7496551533913012
  0.7568646772954789  0.5005311297438896  0.4967938707475639
  0.5050303814398743  0.7467520366584854  0.5064571052332066
  0.5034027952934066  0.4999684976068915  0.7499594427626419
  0.4977938671511713  0.0027406518855239  0.0039419548791118
  0.9987441435798330  0.4931947452673021  0.0056909457585488
  0.4968109088208301  0.7479596015005211  0.2454494864149168
  0.2463645797416876  0.0001819287780367  0.7573676443445263
  0.4988111198361358  0.0086662319541106  0.4944431736480880
  0.7531743916590301  0.0000974966073587  0.7519653022170480
  0.2499068863862777  0.7484828076744470  0.4982337638871629
  0.0010214820447064  0.7650844396944639  0.2522579063665569
  0.7306206233197190  0.4941989596607700  0.2418318878664041
  0.0088883460480303  0.0109356481751667  0.4841438104417534
  0.5013324752934857  0.5012756857754096  0.4986250014242620
  0.7438570948893481  0.5037810974101536  0.7579336661442142
  0.7466246892506638  0.7292104331200390  0.5007056551661480
 
  0.00000000E+00  0.00000000E+00  0.00000000E+00
  0.00000000E+00  0.00000000E+00  0.00000000E+00
  0.00000000E+00  0.00000000E+00  0.00000000E+00
  0.00000000E+00  0.00000000E+00  0.00000000E+00
  0.00000000E+00  0.00000000E+00  0.00000000E+00
  0.00000000E+00  0.00000000E+00  0.00000000E+00
  0.00000000E+00  0.00000000E+00  0.00000000E+00
  0.00000000E+00  0.00000000E+00  0.00000000E+00
  0.00000000E+00  0.00000000E+00  0.00000000E+00
  0.00000000E+00  0.00000000E+00  0.00000000E+00
  0.00000000E+00  0.00000000E+00  0.00000000E+00
  0.00000000E+00  0.00000000E+00  0.00000000E+00
  0.00000000E+00  0.00000000E+00  0.00000000E+00
  0.00000000E+00  0.00000000E+00  0.00000000E+00
  0.00000000E+00  0.00000000E+00  0.00000000E+00
  0.00000000E+00  0.00000000E+00  0.00000000E+00
  0.00000000E+00  0.00000000E+00  0.00000000E+00
  0.00000000E+00  0.00000000E+00  0.00000000E+00
  0.00000000E+00  0.00000000E+00  0.00000000E+00
  0.00000000E+00  0.00000000E+00  0.00000000E+00
  0.00000000E+00  0.00000000E+00  0.00000000E+00
  0.00000000E+00  0.00000000E+00  0.00000000E+00
  0.00000000E+00  0.00000000E+00  0.00000000E+00
  0.00000000E+00  0.00000000E+00  0.00000000E+00
  0.00000000E+00  0.00000000E+00  0.00000000E+00
  0.00000000E+00  0.00000000E+00  0.00000000E+00
  0.00000000E+00  0.00000000E+00  0.00000000E+00
  0.00000000E+00  0.00000000E+00  0.00000000E+00
  0.00000000E+00  0.00000000E+00  0.00000000E+00
  0.00000000E+00  0.00000000E+00  0.00000000E+00
  0.00000000E+00  0.00000000E+00  0.00000000E+00
  0.00000000E+00  0.00000000E+00  0.00000000E+00
  0.00000000E+00  0.00000000E+00  0.00000000E+00
  0.00000000E+00  0.00000000E+00  0.00000000E+00
  0.00000000E+00  0.00000000E+00  0.00000000E+00
  0.00000000E+00  0.00000000E+00  0.00000000E+00
  0.00000000E+00  0.00000000E+00  0.00000000E+00
  0.00000000E+00  0.00000000E+00  0.00000000E+00
  0.00000000E+00  0.00000000E+00  0.00000000E+00
  0.00000000E+00  0.00000000E+00  0.00000000E+00
  0.00000000E+00  0.00000000E+00  0.00000000E+00
  0.00000000E+00  0.00000000E+00  0.00000000E+00
  0.00000000E+00  0.00000000E+00  0.00000000E+00
  0.00000000E+00  0.00000000E+00  0.00000000E+00
  0.00000000E+00  0.00000000E+00  0.00000000E+00
  0.00000000E+00  0.00000000E+00  0.00000000E+00
  0.00000000E+00  0.00000000E+00  0.00000000E+00
  0.00000000E+00  0.00000000E+00  0.00000000E+00
  0.00000000E+00  0.00000000E+00  0.00000000E+00
  0.00000000E+00  0.00000000E+00  0.00000000E+00
  0.00000000E+00  0.00000000E+00  0.00000000E+00
  0.00000000E+00  0.00000000E+00  0.00000000E+00
  0.00000000E+00  0.00000000E+00  0.00000000E+00
  0.00000000E+00  0.00000000E+00  0.00000000E+00
  0.00000000E+00  0.00000000E+00  0.00000000E+00
  0.00000000E+00  0.00000000E+00  0.00000000E+00
  0.00000000E+00  0.00000000E+00  0.00000000E+00
  0.00000000E+00  0.00000000E+00  0.00000000E+00
  0.00000000E+00  0.00000000E+00  0.00000000E+00
  0.00000000E+00  0.00000000E+00  0.00000000E+00
  0.00000000E+00  0.00000000E+00  0.00000000E+00
  0.00000000E+00  0.00000000E+00  0.00000000E+00
  0.00000000E+00  0.00000000E+00  0.00000000E+00
  0.00000000E+00  0.00000000E+00  0.00000000E+00
