13-TiZrVNbW                             
   1.00000000000000     
     8.8666038340473481   -0.0060785556216339    0.0014431487844213
    -0.0060654411830104    8.8640003388548880   -0.0088399876313194
     0.0014558018653577   -0.0088430373958071    8.8179838502776828
  Ti              Nb              V               N               C               Zr              W             
     7     6     6    13    19     7     6
Direct
  0.0003142007052447  0.0040221743696006  0.0104147886089617
  0.2428995264120604  0.0091393768837199  0.2460081642469151
  0.2631173972323443  0.4859418541891674  0.2520324363076469
  0.5000136363269966  0.4991887936361161  0.9987933681487806
  0.4992874495651081  0.2569061274886781  0.7548556804738292
  0.0102689287242246  0.4940647306029582  0.4962961477764946
  0.5009702262741454  0.7435500761400460  0.7521882144303969
  0.0026714249103258  0.2416416239389496  0.2533280951133527
  0.7619387455704439  0.7479822332576224  0.0030819797719544
  0.0032948491411693  0.2607978057120015  0.7467658667148946
  0.7565015763253277  0.2651558820890708  0.4922951246812987
  0.9974320351195954  0.7367838321235893  0.7472587185043821
  0.2566503768529989  0.4977592272969232  0.7498473846776469
  0.2676529184439608  0.2638739021854325  0.9888145415030012
  0.5069012149119126  0.2606959717479644  0.2392914914955080
  0.7640308393528219  0.9931231439357318  0.2372345803584952
  0.7243764607222387  0.2508111033798610  0.0194624164562187
  0.2311624436316566  0.7286083245116395  0.0039719281602749
  0.2347670490613839  0.2488618505070720  0.5153133876399137
  0.2541107287295578  0.2489318090788137  0.2483147483782062
  0.2447296874610170  0.0097318134514057  0.0083345717435847
  0.9983902078545202  0.2406904869370413  0.0008208527021103
  0.7445389287715600  0.2422781315080567  0.2463291312805321
  0.7568172318365249  0.0069242974514939  0.0053924064415613
  0.5028947310621908  0.0093192389048696  0.2483647899713338
  0.9990790729301161  0.4986566680375453  0.2578404396222176
  0.4990415960985752  0.7462799871677031  0.9926387898728954
  0.9991728182496857  0.0021898395749015  0.7513792212368113
  0.7448726026292430  0.2531539939839031  0.7521495960581444
  0.7571297159611775  0.0006934179931121  0.4946118716289546
  0.4981001944640343  0.2573529834588942  0.4999364602508441
  0.5022342613105726  0.0044839834071943  0.7503317241606737
  0.0008920613030958  0.9997281771202644  0.2458219427811705
  0.4963518888978603  0.2585790618692783  0.0008456665828693
  0.2416717653599227  0.7478322039348029  0.2387261899025524
  0.2555030852616705  0.4996303169790012  0.0048292891151562
  0.0066019944421215  0.7538386960612518  0.0029673556499858
  0.7548256696476514  0.7472348426060992  0.2551151179074150
  0.7413654513146225  0.4905624253837949  0.0001071441080352
  0.4956979098301107  0.4925364478948227  0.2473049406835885
  0.2545593336215574  0.2524323263250366  0.7513173900940461
  0.2446514817680008  0.0096492408492407  0.4936712980529059
  0.0039384653428323  0.2536527400672673  0.5008823812309993
  0.2534118986290772  0.7461540616849179  0.7626657292081986
  0.2528810374339146  0.4874733729629986  0.4953644433854353
  0.9924702416727790  0.7543445151929756  0.4974904279717826
  0.9973875796717091  0.4984548411930430  0.7435488393816632
  0.7442778697693364  0.7455537913770489  0.7496845929114178
  0.7567449116000973  0.5005228947484320  0.4967241230081653
  0.5050569363867780  0.7467203069136112  0.5063927379642155
  0.5034576493678750  0.4999713542875652  0.7499152640938983
  0.4977797768449546  0.0028238984185850  0.0039750711423865
  0.9987056971042394  0.4929898307580969  0.0059322398637624
  0.4967391677400021  0.7479230022698359  0.2453758589450076
  0.2461705454994637  0.0001483492062619  0.7575242513076699
  0.4987564856401658  0.0088322446305435  0.4943480480031462
  0.7533538094957920  0.0001091957949012  0.7518326250690714
  0.2498880211980304  0.7484147878358959  0.4982227463705706
  0.0009751968676890  0.7654126504736396  0.2525230804213617
  0.7302290741691040  0.4942227178983706  0.2416373848011940
  0.0089802179364004  0.0110598795115515  0.4838139924836024
  0.5012063602717145  0.5012101785753654  0.4986958965160825
  0.7435656040106059  0.5038067285568583  0.7583647967508315
  0.7465404072581475  0.7285809056676200  0.5006808878740325
 
  0.00000000E+00  0.00000000E+00  0.00000000E+00
  0.00000000E+00  0.00000000E+00  0.00000000E+00
  0.00000000E+00  0.00000000E+00  0.00000000E+00
  0.00000000E+00  0.00000000E+00  0.00000000E+00
  0.00000000E+00  0.00000000E+00  0.00000000E+00
  0.00000000E+00  0.00000000E+00  0.00000000E+00
  0.00000000E+00  0.00000000E+00  0.00000000E+00
  0.00000000E+00  0.00000000E+00  0.00000000E+00
  0.00000000E+00  0.00000000E+00  0.00000000E+00
  0.00000000E+00  0.00000000E+00  0.00000000E+00
  0.00000000E+00  0.00000000E+00  0.00000000E+00
  0.00000000E+00  0.00000000E+00  0.00000000E+00
  0.00000000E+00  0.00000000E+00  0.00000000E+00
  0.00000000E+00  0.00000000E+00  0.00000000E+00
  0.00000000E+00  0.00000000E+00  0.00000000E+00
  0.00000000E+00  0.00000000E+00  0.00000000E+00
  0.00000000E+00  0.00000000E+00  0.00000000E+00
  0.00000000E+00  0.00000000E+00  0.00000000E+00
  0.00000000E+00  0.00000000E+00  0.00000000E+00
  0.00000000E+00  0.00000000E+00  0.00000000E+00
  0.00000000E+00  0.00000000E+00  0.00000000E+00
  0.00000000E+00  0.00000000E+00  0.00000000E+00
  0.00000000E+00  0.00000000E+00  0.00000000E+00
  0.00000000E+00  0.00000000E+00  0.00000000E+00
  0.00000000E+00  0.00000000E+00  0.00000000E+00
  0.00000000E+00  0.00000000E+00  0.00000000E+00
  0.00000000E+00  0.00000000E+00  0.00000000E+00
  0.00000000E+00  0.00000000E+00  0.00000000E+00
  0.00000000E+00  0.00000000E+00  0.00000000E+00
  0.00000000E+00  0.00000000E+00  0.00000000E+00
  0.00000000E+00  0.00000000E+00  0.00000000E+00
  0.00000000E+00  0.00000000E+00  0.00000000E+00
  0.00000000E+00  0.00000000E+00  0.00000000E+00
  0.00000000E+00  0.00000000E+00  0.00000000E+00
  0.00000000E+00  0.00000000E+00  0.00000000E+00
  0.00000000E+00  0.00000000E+00  0.00000000E+00
  0.00000000E+00  0.00000000E+00  0.00000000E+00
  0.00000000E+00  0.00000000E+00  0.00000000E+00
  0.00000000E+00  0.00000000E+00  0.00000000E+00
  0.00000000E+00  0.00000000E+00  0.00000000E+00
  0.00000000E+00  0.00000000E+00  0.00000000E+00
  0.00000000E+00  0.00000000E+00  0.00000000E+00
  0.00000000E+00  0.00000000E+00  0.00000000E+00
  0.00000000E+00  0.00000000E+00  0.00000000E+00
  0.00000000E+00  0.00000000E+00  0.00000000E+00
  0.00000000E+00  0.00000000E+00  0.00000000E+00
  0.00000000E+00  0.00000000E+00  0.00000000E+00
  0.00000000E+00  0.00000000E+00  0.00000000E+00
  0.00000000E+00  0.00000000E+00  0.00000000E+00
  0.00000000E+00  0.00000000E+00  0.00000000E+00
  0.00000000E+00  0.00000000E+00  0.00000000E+00
  0.00000000E+00  0.00000000E+00  0.00000000E+00
  0.00000000E+00  0.00000000E+00  0.00000000E+00
  0.00000000E+00  0.00000000E+00  0.00000000E+00
  0.00000000E+00  0.00000000E+00  0.00000000E+00
  0.00000000E+00  0.00000000E+00  0.00000000E+00
  0.00000000E+00  0.00000000E+00  0.00000000E+00
  0.00000000E+00  0.00000000E+00  0.00000000E+00
  0.00000000E+00  0.00000000E+00  0.00000000E+00
  0.00000000E+00  0.00000000E+00  0.00000000E+00
  0.00000000E+00  0.00000000E+00  0.00000000E+00
  0.00000000E+00  0.00000000E+00  0.00000000E+00
  0.00000000E+00  0.00000000E+00  0.00000000E+00
  0.00000000E+00  0.00000000E+00  0.00000000E+00
