AnionSQS_1
1.0
       11.2399997711         0.0000000000         0.0000000000
        0.0000000000        11.2399997711         0.0000000000
        0.0000000000         0.0000000000        11.2399997711
   Hf   Nb   Cr   Zr    C    N    V
    7    6    6    7   19   13    6
Direct
     0.000000000         0.000000000         0.000000000
     0.750000000         0.000000000         0.250000000
     0.000000000         0.750000000         0.250000000
     0.500000000         0.500000000         0.000000000
     0.000000000         0.000000000         0.500000000
     0.250000000         0.000000000         0.750000000
     0.750000000         0.250000000         0.500000000
     0.000000000         0.250000000         0.250000000
     0.500000000         0.250000000         0.250000000
     0.750000000         0.250000000         0.000000000
     0.750000000         0.750000000         0.000000000
     0.000000000         0.500000000         0.500000000
     0.250000000         0.750000000         0.500000000
     0.250000000         0.000000000         0.250000000
     0.000000000         0.500000000         0.000000000
     0.500000000         0.750000000         0.250000000
     0.000000000         0.250000000         0.750000000
     0.750000000         0.000000000         0.750000000
     0.750000000         0.750000000         0.500000000
     0.250000000         0.250000000         0.000000000
     0.250000000         0.750000000         0.000000000
     0.750000000         0.500000000         0.250000000
     0.500000000         0.250000000         0.750000000
     0.000000000         0.750000000         0.750000000
     0.250000000         0.500000000         0.750000000
     0.500000000         0.750000000         0.750000000
     0.250000000         0.250000000         0.250000000
     0.000000000         0.250000000         0.000000000
     0.000000000         0.000000000         0.250000000
     0.750000000         0.250000000         0.250000000
     0.750000000         0.000000000         0.000000000
     0.250000000         0.750000000         0.250000000
     0.250000000         0.500000000         0.000000000
     0.000000000         0.750000000         0.000000000
     0.000000000         0.500000000         0.250000000
     0.500000000         0.500000000         0.250000000
     0.250000000         0.250000000         0.750000000
     0.000000000         0.000000000         0.750000000
     0.750000000         0.000000000         0.500000000
     0.500000000         0.250000000         0.500000000
     0.250000000         0.750000000         0.750000000
     0.000000000         0.500000000         0.750000000
     0.750000000         0.750000000         0.750000000
     0.750000000         0.500000000         0.500000000
     0.500000000         0.500000000         0.750000000
     0.250000000         0.000000000         0.000000000
     0.500000000         0.250000000         0.000000000
     0.500000000         0.000000000         0.250000000
     0.750000000         0.750000000         0.250000000
     0.750000000         0.500000000         0.000000000
     0.500000000         0.750000000         0.000000000
     0.250000000         0.000000000         0.500000000
     0.000000000         0.250000000         0.500000000
     0.750000000         0.250000000         0.750000000
     0.500000000         0.000000000         0.750000000
     0.250000000         0.500000000         0.500000000
     0.000000000         0.750000000         0.500000000
     0.500000000         0.750000000         0.500000000
     0.500000000         0.000000000         0.000000000
     0.250000000         0.500000000         0.250000000
     0.250000000         0.250000000         0.500000000
     0.500000000         0.000000000         0.500000000
     0.500000000         0.500000000         0.500000000
     0.750000000         0.500000000         0.750000000
