101-TiZrVTaCr                           
   1.00000000000000     
     8.7122221085620417    0.0222794698331156   -0.0087111998733687
     0.0283317331969867    8.7647293929280057    0.0010927216770104
     0.0225589378301725   -0.0141135181431772    8.7040797643511567
   Zr   Ta   Ti   N    C    Cr   V 
     7     6     7    13    19     6     6
Direct
  0.0001914156111111  0.9941054896885381  0.9982869984170066
  0.2686677665516322  0.9991755582978545  0.2479869360760667
  0.2437229506657942  0.4970231115739720  0.2475554268010074
  0.5037904606436285  0.4996121975428409  0.0022528430260115
  0.5056132187185395  0.2466671656374238  0.7428968414237590
  0.9940201304381796  0.5047320716254753  0.4991892568384860
  0.4967659605747277  0.7588985517089530  0.7496340892636975
  0.9930969726271663  0.2371306742991819  0.2532188820765217
  0.7537612370634545  0.7434136551893623  0.0117618994270256
  0.0004280001321376  0.2479259738854067  0.7476726927337618
  0.7498834263116232  0.2394707798078260  0.5002951736326448
  0.9981262245377179  0.7538110831943936  0.7447762724889581
  0.2510670521393847  0.4975498000679971  0.7480033739470089
  0.2571747435314292  0.2430976933540207  0.9918201366191018
  0.5098595921476933  0.2572860898221963  0.2545291670518953
  0.7374794084234851  0.9853307212674086  0.2596939899683756
  0.7483731098837118  0.2519293245444084  0.9989117948566101
  0.2474300268639882  0.7476796428232017  0.0002109013738655
  0.2535579990462966  0.2463540007497405  0.5035630792426892
  0.2513972582452239  0.7527817679383649  0.4987026920260023
  0.2494179094370808  0.2474572252136780  0.2470515510981242
  0.2621202087776066  0.0000523716858111  0.9903457692032659
  0.0020529337892186  0.2527306417439809  0.0001153117104570
  0.7483286320135887  0.2455771068657050  0.2496565989245081
  0.7418510715789972  0.9992205759153721  0.0050936877776915
  0.5131979106566541  0.0015522896172095  0.2606189949850196
  0.9863128947891713  0.4914322547551771  0.2413422552448075
  0.5007665513953118  0.7638603816230146  0.0094009830420575
  0.9886031048266347  0.0027421469614799  0.7374733042786741
  0.7564345749068970  0.2477544169995015  0.7514051913553282
  0.7492095805752765  0.0030868680001721  0.4989250110298796
  0.5006999342207377  0.2423644571646977  0.4901509181228293
  0.5224523716989360  0.0015583921184943  0.7438766106321665
  0.9970452959065441  0.9952714673621434  0.2579017031099949
  0.5032352063154607  0.2391288908554460  0.0048940101504542
  0.2507190822097597  0.7489507164337945  0.2494450910601715
  0.2397424815631349  0.4999506857213356  0.9941330995191455
  0.0025112339365640  0.7389585955466604  0.0055406064152128
  0.7492259096606048  0.7442437206155051  0.2581035333945072
  0.7624305355116480  0.4972492025427632  0.0032583442353240
  0.5060576363331619  0.4999092150919731  0.2604319356745369
  0.2477676207720212  0.2472407988604007  0.7480789016802869
  0.2535590632057635  0.9997296101975379  0.5118449486596314
  0.0026084979958068  0.2430434220470017  0.4993778640917036
  0.2414598820043405  0.7568296697408461  0.7504037016855873
  0.2579763672231553  0.5018820435661870  0.5011641510208167
  0.9963436106530761  0.7629242450390200  0.4951351594090245
  0.9922693894764946  0.5016185068363969  0.7566462818004188
  0.7509781219183372  0.7517909890173383  0.7490816246807640
  0.7384606447252233  0.5040810522351217  0.5012152094277141
  0.5000604045022683  0.7601087644538745  0.4874828191280862
  0.5040577378374070  0.5036563697978990  0.7398710471645681
  0.5173445132965805  0.0124937079054262  0.9714982468179512
  0.9966656137469423  0.5121288671908304  0.9823354410094577
  0.4956008141785936  0.7313232360049796  0.2568659996409670
  0.2273751219899126  0.0121489398808542  0.7413879344433044
  0.4796513611136737  0.9895702969416857  0.5165121171301235
  0.7408410738197883  0.9725782176132254  0.7780131004843034
  0.0084301647906194  0.7686539207853921  0.2591788528408687
  0.7400821369025011  0.5122075187107444  0.2659248508968990
  0.0191960461095835  0.0004134585737392  0.4993060731194067
  0.5026461091322026  0.5220638509282228  0.4962393397434615
  0.7454550659977134  0.5209638074601558  0.7422235304513217
  0.7443490003480895  0.7455214813606421  0.4900859824187017
 
  0.00000000E+00  0.00000000E+00  0.00000000E+00
  0.00000000E+00  0.00000000E+00  0.00000000E+00
  0.00000000E+00  0.00000000E+00  0.00000000E+00
  0.00000000E+00  0.00000000E+00  0.00000000E+00
  0.00000000E+00  0.00000000E+00  0.00000000E+00
  0.00000000E+00  0.00000000E+00  0.00000000E+00
  0.00000000E+00  0.00000000E+00  0.00000000E+00
  0.00000000E+00  0.00000000E+00  0.00000000E+00
  0.00000000E+00  0.00000000E+00  0.00000000E+00
  0.00000000E+00  0.00000000E+00  0.00000000E+00
  0.00000000E+00  0.00000000E+00  0.00000000E+00
  0.00000000E+00  0.00000000E+00  0.00000000E+00
  0.00000000E+00  0.00000000E+00  0.00000000E+00
  0.00000000E+00  0.00000000E+00  0.00000000E+00
  0.00000000E+00  0.00000000E+00  0.00000000E+00
  0.00000000E+00  0.00000000E+00  0.00000000E+00
  0.00000000E+00  0.00000000E+00  0.00000000E+00
  0.00000000E+00  0.00000000E+00  0.00000000E+00
  0.00000000E+00  0.00000000E+00  0.00000000E+00
  0.00000000E+00  0.00000000E+00  0.00000000E+00
  0.00000000E+00  0.00000000E+00  0.00000000E+00
  0.00000000E+00  0.00000000E+00  0.00000000E+00
  0.00000000E+00  0.00000000E+00  0.00000000E+00
  0.00000000E+00  0.00000000E+00  0.00000000E+00
  0.00000000E+00  0.00000000E+00  0.00000000E+00
  0.00000000E+00  0.00000000E+00  0.00000000E+00
  0.00000000E+00  0.00000000E+00  0.00000000E+00
  0.00000000E+00  0.00000000E+00  0.00000000E+00
  0.00000000E+00  0.00000000E+00  0.00000000E+00
  0.00000000E+00  0.00000000E+00  0.00000000E+00
  0.00000000E+00  0.00000000E+00  0.00000000E+00
  0.00000000E+00  0.00000000E+00  0.00000000E+00
  0.00000000E+00  0.00000000E+00  0.00000000E+00
  0.00000000E+00  0.00000000E+00  0.00000000E+00
  0.00000000E+00  0.00000000E+00  0.00000000E+00
  0.00000000E+00  0.00000000E+00  0.00000000E+00
  0.00000000E+00  0.00000000E+00  0.00000000E+00
  0.00000000E+00  0.00000000E+00  0.00000000E+00
  0.00000000E+00  0.00000000E+00  0.00000000E+00
  0.00000000E+00  0.00000000E+00  0.00000000E+00
  0.00000000E+00  0.00000000E+00  0.00000000E+00
  0.00000000E+00  0.00000000E+00  0.00000000E+00
  0.00000000E+00  0.00000000E+00  0.00000000E+00
  0.00000000E+00  0.00000000E+00  0.00000000E+00
  0.00000000E+00  0.00000000E+00  0.00000000E+00
  0.00000000E+00  0.00000000E+00  0.00000000E+00
  0.00000000E+00  0.00000000E+00  0.00000000E+00
  0.00000000E+00  0.00000000E+00  0.00000000E+00
  0.00000000E+00  0.00000000E+00  0.00000000E+00
  0.00000000E+00  0.00000000E+00  0.00000000E+00
  0.00000000E+00  0.00000000E+00  0.00000000E+00
  0.00000000E+00  0.00000000E+00  0.00000000E+00
  0.00000000E+00  0.00000000E+00  0.00000000E+00
  0.00000000E+00  0.00000000E+00  0.00000000E+00
  0.00000000E+00  0.00000000E+00  0.00000000E+00
  0.00000000E+00  0.00000000E+00  0.00000000E+00
  0.00000000E+00  0.00000000E+00  0.00000000E+00
  0.00000000E+00  0.00000000E+00  0.00000000E+00
  0.00000000E+00  0.00000000E+00  0.00000000E+00
  0.00000000E+00  0.00000000E+00  0.00000000E+00
  0.00000000E+00  0.00000000E+00  0.00000000E+00
  0.00000000E+00  0.00000000E+00  0.00000000E+00
  0.00000000E+00  0.00000000E+00  0.00000000E+00
  0.00000000E+00  0.00000000E+00  0.00000000E+00
