101-TiZrVTaCr                           
   1.00000000000000     
     8.7214313715948766    0.0214087295801033   -0.0084211162663195
     0.0274517521612634    8.7777843691641966    0.0006753260350513
     0.0228846898369298   -0.0145536532067029    8.7135728009192253
   Zr   Ta   Ti   N    C    Cr   V 
     7     6     7    13    19     6     6
Direct
  0.0001482730347291  0.9940467979774629  0.9983370298427521
  0.2687429628255922  0.9992038234504317  0.2480503281958825
  0.2436663181840948  0.4969941540505597  0.2475352699214064
  0.5038232459135720  0.4995513955420603  0.0022149844642749
  0.5056197509123447  0.2465917935235071  0.7428814743850602
  0.9940232169674696  0.5047373749691055  0.4992599999994744
  0.4967662593792018  0.7589097617794652  0.7496150274194525
  0.9930498974797209  0.2370364923829929  0.2533016720305817
  0.7537101382509598  0.7433969282296662  0.0118336591873974
  0.0004032099420841  0.2477797148136164  0.7475894025798433
  0.7498164363308084  0.2395239528398185  0.5003495344930137
  0.9981688065320652  0.7538652005260907  0.7446854960294755
  0.2510610233070794  0.4974764920564612  0.7480026068075865
  0.2571867840440179  0.2429565017024370  0.9917638907903019
  0.5099838961403894  0.2573600387515105  0.2545548708329286
  0.7373223405391680  0.9853081300651293  0.2600066354001671
  0.7483602599248105  0.2519228871669575  0.9987723863647877
  0.2474174271791622  0.7476585503817660  0.0002580421901933
  0.2535785512036128  0.2463536290146691  0.5036109020987912
  0.2514341492679186  0.7527729130573674  0.4986602769910862
  0.2493634017427508  0.2474382256210639  0.2470457089694736
  0.2618315558100744  0.0001719438258235  0.9905129072353455
  0.0019839939349844  0.2524583985236818  0.0000522979685193
  0.7484010430375061  0.2455301035428603  0.2497271897557658
  0.7419658674006316 -0.0008059011175938  0.0050256055707127
  0.5131162980597282  0.0017926956537927  0.2604321690702825
  0.9864579808479200  0.4911082089504072  0.2415937007701537
  0.5008100598903001  0.7635982332560219  0.0092330198063264
  0.9886466851947278  0.0027275454688566  0.7376322039139546
  0.7564118016626574  0.2478431811865782  0.7513266573838895
  0.7490901998540398  0.0034803026728707  0.4985207045342755
  0.5007318418407296  0.2423886368839155  0.4902205302747856
  0.5225186611116499  0.0014482689307662  0.7439826553903738
  0.9970842758570524  0.9953527283736932  0.2578923179293414
  0.5032770649586937  0.2391482239837954  0.0048177744718943
  0.2506840921158515  0.7489762400151528  0.2494457067218032
  0.2397869769644597  0.5000269929041352  0.9940810258733455
  0.0024569874975138  0.7390750106620003  0.0054918870223715
  0.7492258601020568  0.7443091902755917  0.2580331864437838
  0.7624166598354795  0.4973518050793407  0.0032427888286086
  0.5060914637274233  0.4998560775657004  0.2603818462479628
  0.2477278290535959  0.2472820051414412  0.7480614974291124
  0.2536025789764951  0.9997319081982170  0.5117862886004948
  0.0025407819485848  0.2430767498415763  0.4993813157482365
  0.2414360360733835  0.7567397246405030  0.7503909066433642
  0.2579253184150399  0.5019016936742114  0.5011835224613872
  0.9963671604095288  0.7629160392819799  0.4951880118868162
  0.9923683263850204  0.5016311209214408  0.7566443657054687
  0.7509972826897431  0.7518399039587393  0.7491452034927975
  0.7385013519534502  0.5041690578390486  0.5012009102863515
  0.5000507931280949  0.7599890125845027  0.4875405138891625
  0.5040004524098545  0.5036289630140108  0.7399012566599805
  0.5176567365081276  0.0125320776709766  0.9714898948814183
 -0.0034609144981177  0.5125019233877524  0.9822150422557304
  0.4958080168987608  0.7310590187945470  0.2569369347764714
  0.2272333387753371  0.0122711197912893  0.7410077618354591
  0.4797899005833262  0.9894046525947479  0.5165224455433509
  0.7406620546850893  0.9723444247902989  0.7782392954339310
  0.0083778265358476  0.7689490959869323  0.2593287177341323
  0.7401385406672648  0.5123683150891974  0.2659064639261256
  0.0192141649812193  0.0004516385116300  0.4994006286289626
  0.5026464668295958  0.5221496087462529  0.4962526453261250
  0.7455638425736278  0.5211446680968052  0.7423859412245426
  0.7442167712120813  0.7451943839043735  0.4899151974231731
 
  0.00000000E+00  0.00000000E+00  0.00000000E+00
  0.00000000E+00  0.00000000E+00  0.00000000E+00
  0.00000000E+00  0.00000000E+00  0.00000000E+00
  0.00000000E+00  0.00000000E+00  0.00000000E+00
  0.00000000E+00  0.00000000E+00  0.00000000E+00
  0.00000000E+00  0.00000000E+00  0.00000000E+00
  0.00000000E+00  0.00000000E+00  0.00000000E+00
  0.00000000E+00  0.00000000E+00  0.00000000E+00
  0.00000000E+00  0.00000000E+00  0.00000000E+00
  0.00000000E+00  0.00000000E+00  0.00000000E+00
  0.00000000E+00  0.00000000E+00  0.00000000E+00
  0.00000000E+00  0.00000000E+00  0.00000000E+00
  0.00000000E+00  0.00000000E+00  0.00000000E+00
  0.00000000E+00  0.00000000E+00  0.00000000E+00
  0.00000000E+00  0.00000000E+00  0.00000000E+00
  0.00000000E+00  0.00000000E+00  0.00000000E+00
  0.00000000E+00  0.00000000E+00  0.00000000E+00
  0.00000000E+00  0.00000000E+00  0.00000000E+00
  0.00000000E+00  0.00000000E+00  0.00000000E+00
  0.00000000E+00  0.00000000E+00  0.00000000E+00
  0.00000000E+00  0.00000000E+00  0.00000000E+00
  0.00000000E+00  0.00000000E+00  0.00000000E+00
  0.00000000E+00  0.00000000E+00  0.00000000E+00
  0.00000000E+00  0.00000000E+00  0.00000000E+00
  0.00000000E+00  0.00000000E+00  0.00000000E+00
  0.00000000E+00  0.00000000E+00  0.00000000E+00
  0.00000000E+00  0.00000000E+00  0.00000000E+00
  0.00000000E+00  0.00000000E+00  0.00000000E+00
  0.00000000E+00  0.00000000E+00  0.00000000E+00
  0.00000000E+00  0.00000000E+00  0.00000000E+00
  0.00000000E+00  0.00000000E+00  0.00000000E+00
  0.00000000E+00  0.00000000E+00  0.00000000E+00
  0.00000000E+00  0.00000000E+00  0.00000000E+00
  0.00000000E+00  0.00000000E+00  0.00000000E+00
  0.00000000E+00  0.00000000E+00  0.00000000E+00
  0.00000000E+00  0.00000000E+00  0.00000000E+00
  0.00000000E+00  0.00000000E+00  0.00000000E+00
  0.00000000E+00  0.00000000E+00  0.00000000E+00
  0.00000000E+00  0.00000000E+00  0.00000000E+00
  0.00000000E+00  0.00000000E+00  0.00000000E+00
  0.00000000E+00  0.00000000E+00  0.00000000E+00
  0.00000000E+00  0.00000000E+00  0.00000000E+00
  0.00000000E+00  0.00000000E+00  0.00000000E+00
  0.00000000E+00  0.00000000E+00  0.00000000E+00
  0.00000000E+00  0.00000000E+00  0.00000000E+00
  0.00000000E+00  0.00000000E+00  0.00000000E+00
  0.00000000E+00  0.00000000E+00  0.00000000E+00
  0.00000000E+00  0.00000000E+00  0.00000000E+00
  0.00000000E+00  0.00000000E+00  0.00000000E+00
  0.00000000E+00  0.00000000E+00  0.00000000E+00
  0.00000000E+00  0.00000000E+00  0.00000000E+00
  0.00000000E+00  0.00000000E+00  0.00000000E+00
  0.00000000E+00  0.00000000E+00  0.00000000E+00
  0.00000000E+00  0.00000000E+00  0.00000000E+00
  0.00000000E+00  0.00000000E+00  0.00000000E+00
  0.00000000E+00  0.00000000E+00  0.00000000E+00
  0.00000000E+00  0.00000000E+00  0.00000000E+00
  0.00000000E+00  0.00000000E+00  0.00000000E+00
  0.00000000E+00  0.00000000E+00  0.00000000E+00
  0.00000000E+00  0.00000000E+00  0.00000000E+00
  0.00000000E+00  0.00000000E+00  0.00000000E+00
  0.00000000E+00  0.00000000E+00  0.00000000E+00
  0.00000000E+00  0.00000000E+00  0.00000000E+00
  0.00000000E+00  0.00000000E+00  0.00000000E+00
