27-TiHfNbTaMo                           
   1.00000000000000     
     8.8723650831037535    0.0065650683232420    0.0144947068678013
     0.0066131136319516    8.9327185431894733   -0.0179625461091126
     0.0145189031909835   -0.0178809142941061    8.9036611900187612
   Ti   Ta   Hf   N    C    Mo   Nb
     7     6     7    13    19     6     6
Direct
  0.0043773077735791 -0.0142633592983548  0.0037165926033798
  0.2513736428395930 -0.0095007409730234  0.2541573610007548
  0.2543975909689863  0.5096274392351060  0.2465529166960954
  0.4983134664763563  0.4879637820070505 -0.0038023278714355
  0.4907116397797377  0.2430016330266015  0.7551779576979717
 -0.0000711822359516  0.4976422017405890  0.5069949177341594
  0.5030176869583459  0.7533720310066666  0.7442187503394991
  0.0002529761317711  0.2450997148420880  0.2608962988912822
  0.7465316774854772  0.7496273064550636  0.0013353424710731
  0.0070649309870943  0.2461845585583541  0.7400497093977105
  0.7537006408545718  0.2596845162463812  0.5063358512689591
 -0.0014071141244013  0.7508179405484194  0.7525000688963647
  0.2520467502440599  0.4992478019471278  0.7541885326479235
  0.2448782658825102  0.2459618143665430  0.0000691922706994
  0.4979433476191947  0.2507851145659365  0.2466054768581505
  0.7467612655515354 -0.0065581272973312  0.2539300018143719
  0.7539346797302047  0.2499090906765250 -0.0080196623408362
  0.2616999780188311  0.7559900486202740 -0.0008088702452703
  0.2521417720542045  0.2500166559744568  0.4993615994774730
  0.2471992371738855  0.7484049828401204  0.5019530256272368
  0.2484828837233243  0.2488375072352225  0.2487752733692191
  0.2527038590976364  0.0015030789290437  0.0039689790019564
  0.0001110785079655  0.2453157267525851 -0.0001467420860276
  0.7510465936522961  0.2468374184705487  0.2505806616894202
  0.7559770262455024 -0.0009530668413885  0.0073384466158414
  0.4965086315170436  0.0001040504658665  0.2396769165836614
  0.0022015698455506  0.4911628464467945  0.2502424697878104
  0.5066071032601767  0.7544566044338831 -0.0046125975044402
 -0.0072877724326749  0.0019297248639044  0.7542707227401915
  0.7499099871496139  0.2474891780644559  0.7466251447787969
  0.7459555186219576  0.0053039685067151  0.5016692150773799
  0.5052703535648979  0.2469328682997551  0.5008466484863782
  0.5017294415194008  0.0040484126325062  0.7327357933927368
  0.0027720289265186  0.0006735062606870  0.2471837392668498
  0.5004523416821767  0.2568809850025641 -0.0050252936817605
  0.2513846467759594  0.7484769265142909  0.2499398832764697
  0.2514748714796738  0.5027669067501147  0.0040888550675567
  0.0016432648131394  0.7565713959190626 -0.0019897545321473
  0.7499779891130172  0.7476727261488390  0.2489225566089291
  0.7483289071956807  0.5035123295236601  0.0014567387032847
  0.4970513160062833  0.5031933749520208  0.2487557921019910
  0.2538546240003094  0.2535574006896836  0.7503240691905421
  0.2464038957263373 -0.0018799626187483  0.4954980866884139
 -0.0001921572681283  0.2534702331112236  0.5009228496322758
  0.2512584076489298  0.7506469411300807  0.7512373435081841
  0.2485717146328544  0.4991917415524863  0.4970324917215841
 -0.0036109227318675  0.7474958346661570  0.5031868040277759
  0.0005303687664812  0.4997194929564845  0.7497878574694609
  0.7469282784856359  0.7510221828599069  0.7520311074858739
  0.7539370630231014  0.4982675258889555  0.5000870874121139
  0.4999550467494421  0.7487004746990743  0.5082150830242104
  0.4995980678473356  0.5012560116179078  0.7510900602908851
  0.5090030145318535  0.0172817666763180 -0.0170779212183195
  0.0029628408244870  0.5202185193904315 -0.0070022674137591
  0.5013191781068960  0.7480138262500327  0.2667750668493625
  0.2482008636915535  0.0048470892863231  0.7447064079858631
  0.4789202108331088 -0.0165978429978889  0.4927883031800566
  0.7334489329935084 -0.0169420383440403  0.7707779292234767
  0.0016204561771079  0.7505365686159495  0.2474222927927802
  0.7432514875140188  0.5069155542176851  0.2500108548865115
  0.0080850740185142  0.0025657967022392  0.4986777453210020
  0.5002518268251114  0.5066896942129399  0.5036715233349393
  0.7474958846916095  0.5114914998042648  0.7522879311875925
  0.7510363144771293  0.7378014872128623  0.4968337814395723
 
  0.00000000E+00  0.00000000E+00  0.00000000E+00
  0.00000000E+00  0.00000000E+00  0.00000000E+00
  0.00000000E+00  0.00000000E+00  0.00000000E+00
  0.00000000E+00  0.00000000E+00  0.00000000E+00
  0.00000000E+00  0.00000000E+00  0.00000000E+00
  0.00000000E+00  0.00000000E+00  0.00000000E+00
  0.00000000E+00  0.00000000E+00  0.00000000E+00
  0.00000000E+00  0.00000000E+00  0.00000000E+00
  0.00000000E+00  0.00000000E+00  0.00000000E+00
  0.00000000E+00  0.00000000E+00  0.00000000E+00
  0.00000000E+00  0.00000000E+00  0.00000000E+00
  0.00000000E+00  0.00000000E+00  0.00000000E+00
  0.00000000E+00  0.00000000E+00  0.00000000E+00
  0.00000000E+00  0.00000000E+00  0.00000000E+00
  0.00000000E+00  0.00000000E+00  0.00000000E+00
  0.00000000E+00  0.00000000E+00  0.00000000E+00
  0.00000000E+00  0.00000000E+00  0.00000000E+00
  0.00000000E+00  0.00000000E+00  0.00000000E+00
  0.00000000E+00  0.00000000E+00  0.00000000E+00
  0.00000000E+00  0.00000000E+00  0.00000000E+00
  0.00000000E+00  0.00000000E+00  0.00000000E+00
  0.00000000E+00  0.00000000E+00  0.00000000E+00
  0.00000000E+00  0.00000000E+00  0.00000000E+00
  0.00000000E+00  0.00000000E+00  0.00000000E+00
  0.00000000E+00  0.00000000E+00  0.00000000E+00
  0.00000000E+00  0.00000000E+00  0.00000000E+00
  0.00000000E+00  0.00000000E+00  0.00000000E+00
  0.00000000E+00  0.00000000E+00  0.00000000E+00
  0.00000000E+00  0.00000000E+00  0.00000000E+00
  0.00000000E+00  0.00000000E+00  0.00000000E+00
  0.00000000E+00  0.00000000E+00  0.00000000E+00
  0.00000000E+00  0.00000000E+00  0.00000000E+00
  0.00000000E+00  0.00000000E+00  0.00000000E+00
  0.00000000E+00  0.00000000E+00  0.00000000E+00
  0.00000000E+00  0.00000000E+00  0.00000000E+00
  0.00000000E+00  0.00000000E+00  0.00000000E+00
  0.00000000E+00  0.00000000E+00  0.00000000E+00
  0.00000000E+00  0.00000000E+00  0.00000000E+00
  0.00000000E+00  0.00000000E+00  0.00000000E+00
  0.00000000E+00  0.00000000E+00  0.00000000E+00
  0.00000000E+00  0.00000000E+00  0.00000000E+00
  0.00000000E+00  0.00000000E+00  0.00000000E+00
  0.00000000E+00  0.00000000E+00  0.00000000E+00
  0.00000000E+00  0.00000000E+00  0.00000000E+00
  0.00000000E+00  0.00000000E+00  0.00000000E+00
  0.00000000E+00  0.00000000E+00  0.00000000E+00
  0.00000000E+00  0.00000000E+00  0.00000000E+00
  0.00000000E+00  0.00000000E+00  0.00000000E+00
  0.00000000E+00  0.00000000E+00  0.00000000E+00
  0.00000000E+00  0.00000000E+00  0.00000000E+00
  0.00000000E+00  0.00000000E+00  0.00000000E+00
  0.00000000E+00  0.00000000E+00  0.00000000E+00
  0.00000000E+00  0.00000000E+00  0.00000000E+00
  0.00000000E+00  0.00000000E+00  0.00000000E+00
  0.00000000E+00  0.00000000E+00  0.00000000E+00
  0.00000000E+00  0.00000000E+00  0.00000000E+00
  0.00000000E+00  0.00000000E+00  0.00000000E+00
  0.00000000E+00  0.00000000E+00  0.00000000E+00
  0.00000000E+00  0.00000000E+00  0.00000000E+00
  0.00000000E+00  0.00000000E+00  0.00000000E+00
  0.00000000E+00  0.00000000E+00  0.00000000E+00
  0.00000000E+00  0.00000000E+00  0.00000000E+00
  0.00000000E+00  0.00000000E+00  0.00000000E+00
  0.00000000E+00  0.00000000E+00  0.00000000E+00
