49-ZrVTaMoW                             
   1.00000000000000     
     8.8566143912109272    0.0167918508825992    0.0052984391977288
     0.0228650314437500    8.8456860177799541   -0.0039375398662214
     0.0371688673341717   -0.0192236246148326    8.8470192899783875
  Zr              Ta              V               N               C               W               Mo            
     7     6     7    13    19     6     6
Direct
  0.0029273100217726  0.0026991350476501  0.9996429120237446
  0.2590433007898741  0.0068338985958515  0.2427867618118493
  0.2495556076740491  0.4915993950936398  0.2536898960112489
  0.5039902243036165  0.4947311617436560  0.0024853722134025
  0.4993268787828933  0.2483260813895008  0.7422059113544828
  0.9982677663673473  0.5045359782966709  0.4999404782664779
  0.4957742214595579  0.7566261125997653  0.7548378957681784
  0.9881933747122096  0.2396585293768667  0.2547400985777907
  0.7631257045287150  0.7443081246315425  0.0106964163506552
  0.9989281610273307  0.2618057471930374  0.7501012057378740
  0.7496131515740942  0.2518807117853242  0.4910110744569123
  0.9998437267557886  0.7468376433057031  0.7485224651911128
  0.2544531394884890  0.5025399482954457  0.7443312358260071
  0.2488751051661149  0.2713224058566102  0.9805209316303197
  0.5313138060136846  0.2514916188187001  0.2400459142704137
  0.7441269837365430  0.9847187676985504  0.2781929476278082
  0.7337603230232239  0.2344005922678869  0.9871736764083663
  0.2289957716271941  0.7284709080047187  0.0008514236816485
  0.2307081959013473  0.2399136121733524  0.5145795795090723
  0.2451711455515499  0.7647999517698901  0.5020809028420130
  0.2335805374662884  0.2488007573581035  0.2462529096615440
  0.2609391380026947  0.0007342300178688  0.9873947895819506
  0.9943741623436176  0.2538677090941316  0.0017778091494592
  0.7484870179068329  0.2396504616520988  0.2412601853617576
  0.7526769843928958  0.9989206373276276  0.0252137341969114
  0.5139262811321106  0.9960961195771265  0.2357446655073228
  0.9949224768008896  0.4928891241155543  0.2440414054704523
  0.5045057874017739  0.7595284278678239  0.0092173385631944
  0.9883573707046689  0.0043835221761671  0.7433631568285541
  0.7541861164356323  0.2429463115758942  0.7482298349722061
  0.7514980413275419  0.0038016374840953  0.5225935810625487
  0.5035503874078443  0.2350842452462057  0.4827141054681847
  0.4935074247967372  0.0024484172885038  0.7433620397125376
  0.9936687391532492  0.0032349559642187  0.2560777867008436
  0.4893886022117441  0.2460889999522958  0.0040269317233680
  0.2558443649628269  0.7498825485998304  0.2460621285679254
  0.2446152534715217  0.4985145784819016  0.9954252332986977
  0.0035483424256219  0.7431815601053007  0.0053633618270371
  0.7543815086152048  0.7474390633559973  0.2524713638026619
  0.7584554843803288  0.4892923332649581  0.0100782066931401
  0.4992006305889758  0.4912388518528427  0.2554989776571340
  0.2437760209052809  0.2503845205935206  0.7485351892314119
  0.2707894367833306  0.0047325495568339  0.5008271786289054
  0.9986872170975808  0.2477377777989112  0.5019326144665627
  0.2424572638906819  0.7555055440002075  0.7541053795484196
  0.2569196147710389  0.4960673695415420  0.5037387811876257
  0.0019796202418597  0.7608267196425561  0.5029417557697801
  0.0028711167620067  0.5036205237456985  0.7493608170389299
  0.7517032911058715  0.7549542714908981  0.7535050850679560
  0.7427330493257032  0.4977308662089082  0.5076330386132822
  0.4908703274266166  0.7537536716944457  0.4981142097763605
  0.5019310375342064  0.5031078125433173  0.7434571062425502
  0.5227963645927161  0.0157551118934706  0.9903358479160422
  0.9985550760245433  0.4993572131082075  0.9858699835924808
  0.4920199271516700  0.7400061330974136  0.2567138581499538
  0.2362924229185032  0.0023508199013209  0.7366329363591165
  0.5160932850814484  0.9857143171281767  0.4722325033981406
  0.7384733859260821  0.9898717057361145  0.7762082059160166
  0.0108156122100050  0.7723748208462461  0.2602725617212283
  0.7336452744543329  0.5041744458782450  0.2598579079293832
  0.0243868940790430  0.0014224086241001  0.4968353680176003
  0.5032286651922758  0.5244097663776259  0.4924559860781557
  0.7531902422498473  0.5164467152001765  0.7639109992545062
  0.7461766798409410  0.7441698500891606  0.4899161767288001
 
  0.00000000E+00  0.00000000E+00  0.00000000E+00
  0.00000000E+00  0.00000000E+00  0.00000000E+00
  0.00000000E+00  0.00000000E+00  0.00000000E+00
  0.00000000E+00  0.00000000E+00  0.00000000E+00
  0.00000000E+00  0.00000000E+00  0.00000000E+00
  0.00000000E+00  0.00000000E+00  0.00000000E+00
  0.00000000E+00  0.00000000E+00  0.00000000E+00
  0.00000000E+00  0.00000000E+00  0.00000000E+00
  0.00000000E+00  0.00000000E+00  0.00000000E+00
  0.00000000E+00  0.00000000E+00  0.00000000E+00
  0.00000000E+00  0.00000000E+00  0.00000000E+00
  0.00000000E+00  0.00000000E+00  0.00000000E+00
  0.00000000E+00  0.00000000E+00  0.00000000E+00
  0.00000000E+00  0.00000000E+00  0.00000000E+00
  0.00000000E+00  0.00000000E+00  0.00000000E+00
  0.00000000E+00  0.00000000E+00  0.00000000E+00
  0.00000000E+00  0.00000000E+00  0.00000000E+00
  0.00000000E+00  0.00000000E+00  0.00000000E+00
  0.00000000E+00  0.00000000E+00  0.00000000E+00
  0.00000000E+00  0.00000000E+00  0.00000000E+00
  0.00000000E+00  0.00000000E+00  0.00000000E+00
  0.00000000E+00  0.00000000E+00  0.00000000E+00
  0.00000000E+00  0.00000000E+00  0.00000000E+00
  0.00000000E+00  0.00000000E+00  0.00000000E+00
  0.00000000E+00  0.00000000E+00  0.00000000E+00
  0.00000000E+00  0.00000000E+00  0.00000000E+00
  0.00000000E+00  0.00000000E+00  0.00000000E+00
  0.00000000E+00  0.00000000E+00  0.00000000E+00
  0.00000000E+00  0.00000000E+00  0.00000000E+00
  0.00000000E+00  0.00000000E+00  0.00000000E+00
  0.00000000E+00  0.00000000E+00  0.00000000E+00
  0.00000000E+00  0.00000000E+00  0.00000000E+00
  0.00000000E+00  0.00000000E+00  0.00000000E+00
  0.00000000E+00  0.00000000E+00  0.00000000E+00
  0.00000000E+00  0.00000000E+00  0.00000000E+00
  0.00000000E+00  0.00000000E+00  0.00000000E+00
  0.00000000E+00  0.00000000E+00  0.00000000E+00
  0.00000000E+00  0.00000000E+00  0.00000000E+00
  0.00000000E+00  0.00000000E+00  0.00000000E+00
  0.00000000E+00  0.00000000E+00  0.00000000E+00
  0.00000000E+00  0.00000000E+00  0.00000000E+00
  0.00000000E+00  0.00000000E+00  0.00000000E+00
  0.00000000E+00  0.00000000E+00  0.00000000E+00
  0.00000000E+00  0.00000000E+00  0.00000000E+00
  0.00000000E+00  0.00000000E+00  0.00000000E+00
  0.00000000E+00  0.00000000E+00  0.00000000E+00
  0.00000000E+00  0.00000000E+00  0.00000000E+00
  0.00000000E+00  0.00000000E+00  0.00000000E+00
  0.00000000E+00  0.00000000E+00  0.00000000E+00
  0.00000000E+00  0.00000000E+00  0.00000000E+00
  0.00000000E+00  0.00000000E+00  0.00000000E+00
  0.00000000E+00  0.00000000E+00  0.00000000E+00
  0.00000000E+00  0.00000000E+00  0.00000000E+00
  0.00000000E+00  0.00000000E+00  0.00000000E+00
  0.00000000E+00  0.00000000E+00  0.00000000E+00
  0.00000000E+00  0.00000000E+00  0.00000000E+00
  0.00000000E+00  0.00000000E+00  0.00000000E+00
  0.00000000E+00  0.00000000E+00  0.00000000E+00
  0.00000000E+00  0.00000000E+00  0.00000000E+00
  0.00000000E+00  0.00000000E+00  0.00000000E+00
  0.00000000E+00  0.00000000E+00  0.00000000E+00
  0.00000000E+00  0.00000000E+00  0.00000000E+00
  0.00000000E+00  0.00000000E+00  0.00000000E+00
  0.00000000E+00  0.00000000E+00  0.00000000E+00
