61-TiZrNbCrMo                           
   1.00000000000000     
     8.8130280201110196    0.0202009517283933   -0.0057086081347921
     0.0265480843212046    8.8109614325442163    0.0059098557786429
     0.0259073286179596   -0.0093755660660775    8.7974182185801624
   Zr   Nb   Ti   N    C    Cr   Mo
     7     6     7    13    19     6     6
Direct
  0.9990131662897874  0.9969650310086328  0.9977876685771560
  0.2675544382623270  0.0029403480999732  0.2463249223752405
  0.2423335310684430  0.4945724598970763  0.2452402212622440
  0.5025871769692901  0.4995584638328189  0.0012312540391494
  0.5086485965415045  0.2462972522875382  0.7411639648361351
 -0.0029014130042831  0.5023288941231727  0.5013476870487200
  0.4971897918868581  0.7587895748626959  0.7481943105471022
  0.9874596094924811  0.2400043308617606  0.2526878841768331
  0.7567991796702409  0.7443164238310150  0.0138719322432041
  0.0005919887353134  0.2510918654409183  0.7500135104331905
  0.7529103934123259  0.2454952004000007  0.4967537229514538
 -0.0007220502343265  0.7499485601590572  0.7491831937167422
  0.2514655199596762  0.4939605155550250  0.7488220736126565
  0.2574399623869904  0.2418978130408009  0.9894402480063583
  0.5115378541702844  0.2564590877249076  0.2537403575993853
  0.7325801094402138  0.9911092216283430  0.2652431036422405
  0.7461717227896346  0.2463777353309765 -0.0004130433327789
  0.2480362965221784  0.7485689086428616 -0.0042325297442084
  0.2515501930909474  0.2466150653746621  0.5050509889954191
  0.2497883578602421  0.7519252811157413  0.5028457569940555
  0.2506292869267345  0.2482807222349164  0.2477843048571529
  0.2583101619393159  0.0018213989229573  0.9910276212341231
  0.0016194058119538  0.2546622791862123  0.0005855273801765
  0.7441459563593276  0.2385913670898496  0.2454989599687965
  0.7423099123131612  0.0001009682892583  0.0042206884844881
  0.5108422774965971  0.0031190020870353  0.2621690389954923
  0.9920776035128428  0.4982744886225318  0.2435024983943083
  0.4974246917524547  0.7641276766331733  0.0082433403693423
  0.9864043693862343  0.0038434976665310  0.7418578991474474
  0.7567576040281583  0.2471086552929609  0.7532910328072528
  0.7552745673585293  0.0059063855299964  0.4929688290594548
  0.4983200390553010  0.2449877167352780  0.4887173213716052
  0.5266398661031985  0.0015153322087923  0.7442302291498949
  0.9966382592130327  0.0010198916202015  0.2535386788451605
  0.5024986254308360  0.2377641206029756  0.0027137647044783
  0.2557586562435797  0.7497986726397211  0.2495728097163504
  0.2409292335440348  0.5007938635516855  0.9927270079643987
  0.0039484031953631  0.7388490275268035  0.0042156038673587
  0.7458374977779857  0.7461386134754411  0.2543728064651211
  0.7646718974614826  0.4943265976247743  0.0078610055169957
  0.4977344111824926  0.5038024337088070  0.2510848320615714
  0.2496167152905197  0.2453122758970024  0.7481086201747917
  0.2585096037374070  0.0003383866999214  0.5156770883239155
  0.0044480824159948  0.2479227927968664  0.5002518218756909
  0.2428039073372295  0.7585774373150173  0.7506634747291505
  0.2548657178961333  0.5022578900741841  0.5012281542569905
  0.0003779535035362  0.7586221797500812  0.5001881657656180
  0.0010513917419694  0.5018295750930724  0.7555814012552399
  0.7515952465571092  0.7564110644141278  0.7510935464835552
  0.7435592873412394  0.4966455326137477  0.5082048471387391
  0.4973342776258927  0.7653464150678083  0.4842079155893045
  0.5035867605808392  0.5029807025549470  0.7427837130429188
  0.5212272766597790  0.0100283350574161  0.9694331903521953
  0.9936848403272371  0.5116027252045282  0.9785332146850033
  0.4751072965242566  0.7328098076549445  0.2556668979128126
  0.2184908927820819  0.0161599069964053  0.7438905597910349
  0.4750038404804149  0.9932051346082883  0.5148774592188373
  0.7406842170509923  0.9694654513690270  0.7824889444219766
  0.0162206014825291  0.7676194228463495  0.2571184142881644
  0.7373530944811537  0.4932204407136226  0.2583534288472785
  0.0205758499452602  0.0036787243565993  0.4972058022739675
  0.5042046400094505  0.5193597418770336  0.4874007105615630
  0.7550076793845750  0.5173226743145246  0.7626335902889861
  0.7458840514416339  0.7352283892566092  0.4899281463810123
 
  0.00000000E+00  0.00000000E+00  0.00000000E+00
  0.00000000E+00  0.00000000E+00  0.00000000E+00
  0.00000000E+00  0.00000000E+00  0.00000000E+00
  0.00000000E+00  0.00000000E+00  0.00000000E+00
  0.00000000E+00  0.00000000E+00  0.00000000E+00
  0.00000000E+00  0.00000000E+00  0.00000000E+00
  0.00000000E+00  0.00000000E+00  0.00000000E+00
  0.00000000E+00  0.00000000E+00  0.00000000E+00
  0.00000000E+00  0.00000000E+00  0.00000000E+00
  0.00000000E+00  0.00000000E+00  0.00000000E+00
  0.00000000E+00  0.00000000E+00  0.00000000E+00
  0.00000000E+00  0.00000000E+00  0.00000000E+00
  0.00000000E+00  0.00000000E+00  0.00000000E+00
  0.00000000E+00  0.00000000E+00  0.00000000E+00
  0.00000000E+00  0.00000000E+00  0.00000000E+00
  0.00000000E+00  0.00000000E+00  0.00000000E+00
  0.00000000E+00  0.00000000E+00  0.00000000E+00
  0.00000000E+00  0.00000000E+00  0.00000000E+00
  0.00000000E+00  0.00000000E+00  0.00000000E+00
  0.00000000E+00  0.00000000E+00  0.00000000E+00
  0.00000000E+00  0.00000000E+00  0.00000000E+00
  0.00000000E+00  0.00000000E+00  0.00000000E+00
  0.00000000E+00  0.00000000E+00  0.00000000E+00
  0.00000000E+00  0.00000000E+00  0.00000000E+00
  0.00000000E+00  0.00000000E+00  0.00000000E+00
  0.00000000E+00  0.00000000E+00  0.00000000E+00
  0.00000000E+00  0.00000000E+00  0.00000000E+00
  0.00000000E+00  0.00000000E+00  0.00000000E+00
  0.00000000E+00  0.00000000E+00  0.00000000E+00
  0.00000000E+00  0.00000000E+00  0.00000000E+00
  0.00000000E+00  0.00000000E+00  0.00000000E+00
  0.00000000E+00  0.00000000E+00  0.00000000E+00
  0.00000000E+00  0.00000000E+00  0.00000000E+00
  0.00000000E+00  0.00000000E+00  0.00000000E+00
  0.00000000E+00  0.00000000E+00  0.00000000E+00
  0.00000000E+00  0.00000000E+00  0.00000000E+00
  0.00000000E+00  0.00000000E+00  0.00000000E+00
  0.00000000E+00  0.00000000E+00  0.00000000E+00
  0.00000000E+00  0.00000000E+00  0.00000000E+00
  0.00000000E+00  0.00000000E+00  0.00000000E+00
  0.00000000E+00  0.00000000E+00  0.00000000E+00
  0.00000000E+00  0.00000000E+00  0.00000000E+00
  0.00000000E+00  0.00000000E+00  0.00000000E+00
  0.00000000E+00  0.00000000E+00  0.00000000E+00
  0.00000000E+00  0.00000000E+00  0.00000000E+00
  0.00000000E+00  0.00000000E+00  0.00000000E+00
  0.00000000E+00  0.00000000E+00  0.00000000E+00
  0.00000000E+00  0.00000000E+00  0.00000000E+00
  0.00000000E+00  0.00000000E+00  0.00000000E+00
  0.00000000E+00  0.00000000E+00  0.00000000E+00
  0.00000000E+00  0.00000000E+00  0.00000000E+00
  0.00000000E+00  0.00000000E+00  0.00000000E+00
  0.00000000E+00  0.00000000E+00  0.00000000E+00
  0.00000000E+00  0.00000000E+00  0.00000000E+00
  0.00000000E+00  0.00000000E+00  0.00000000E+00
  0.00000000E+00  0.00000000E+00  0.00000000E+00
  0.00000000E+00  0.00000000E+00  0.00000000E+00
  0.00000000E+00  0.00000000E+00  0.00000000E+00
  0.00000000E+00  0.00000000E+00  0.00000000E+00
  0.00000000E+00  0.00000000E+00  0.00000000E+00
  0.00000000E+00  0.00000000E+00  0.00000000E+00
  0.00000000E+00  0.00000000E+00  0.00000000E+00
  0.00000000E+00  0.00000000E+00  0.00000000E+00
  0.00000000E+00  0.00000000E+00  0.00000000E+00
