45-ZrHfTaMoW                            
   1.00000000000000     
     8.9900028734040944    0.0161487782147541    0.0135205527447265
     0.0221192129678164    9.0165500446672233   -0.0169631524273155
     0.0457878956987715   -0.0323222773378181    8.9981685488786667
  Zr              W               Hf              N               C               Mo              Ta            
     7     6     7    13    19     6     6
Direct
  0.0028024734307934  0.0006293999384255  0.9915651415767999
  0.2576579598376720  0.9981413615014521  0.2557977334639971
  0.2470786607631415  0.5014660289888677  0.2475314082325544
  0.4998140662813140  0.4978173662244770  0.9994277894534250
  0.4997185889270640  0.2404407288954310  0.7460005067969728
  0.9996070815798868  0.4992837134864923  0.5033560134059742
  0.5015806378642156  0.7589924306260472  0.7527025640280928
  0.9904382566882761  0.2308864250072709  0.2728018054823985
  0.7686759378257013  0.7437980127610041  0.9939247716884290
  0.0194718754344860  0.2429856322335462  0.7322938054710988
  0.7566098223753828  0.2666298336536538  0.4909194462435603
  0.9988446274153868  0.7296234227745269  0.7631503000317078
  0.2502712508162577  0.5072231497202954  0.7546630509117084
  0.2472959584976717  0.2480074356863503  0.9951369984890871
  0.5050153217550852  0.2488032332877567  0.2475241336465849
  0.7443497648213000  0.9954365049814270  0.2596243754356950
  0.7543957579357689  0.2521922727903882  0.9907188629796445
  0.2529464750929794  0.7559769010269551  0.0010329362706702
  0.2558408140010082  0.2490899653137884  0.5035476329591312
  0.2480776289772716  0.7511210351963197  0.5046759319724314
  0.2477707875523626  0.2484534756121935  0.2499110635179025
  0.2605219722197057  0.0036170011800920  0.9995174017871105
  0.0011212944361220  0.2531763794000788  0.0078559285920126
  0.7528324985685112  0.2489902180957563  0.2453098107124885
  0.7522056564978611  0.9969206471577937  0.0073989308513672
  0.5045373684422180  0.9995370901899536  0.2329882829338234
  0.9925037697401069  0.4912630358539617  0.2464454625738549
  0.5064544370859496  0.7575507134577176  0.0047616257418781
  0.9722393102873214  0.0067593551859218  0.7442003405682428
  0.7582236635027586  0.2496037687438499  0.7445955284439201
  0.7480738497530759  0.0021917115824500  0.5059802702532138
  0.5068330120519233  0.2501571787692777  0.4929838705618881
  0.4882605425203904  0.0006831772890211  0.7332921284105564
  0.9971997611832278  0.9982344467584056  0.2553166099807142
  0.5026986911080669  0.2505243811302623  0.9992638765573849
  0.2483124358511764  0.7494665775559041  0.2514691999481183
  0.2453665871233386  0.5027787280327680  0.9959595610366953
  0.0046499457280099  0.7523199216872394  0.0046055178159430
  0.7513240349691211  0.7465983156616051  0.2459001489485048
  0.7552905858662228  0.5045683005189906  0.9994907886092798
  0.5053744091914745  0.5007931929234096  0.2557220337486932
  0.2502706847812337  0.2530035880247586  0.7491866824430519
  0.2523011811008393  0.9989409030849660  0.5093508140727853
  0.9983458704303446  0.2454225085541414  0.5058593606502181
  0.2415474576395613  0.7522043030867444  0.7531140194033016
  0.2544532662540019  0.4994143641705588  0.5038598315375509
  0.9946150706069796  0.7546516628483709  0.5070918955471373
  0.9990905392338109  0.4891375367207447  0.7556389116551061
  0.7551146331503864  0.7493053799742181  0.7498187057198465
  0.7462238349742191  0.5018875085458236  0.4989532628254535
  0.4990285528017644  0.7473189326905918  0.5024009727829759
  0.4993930211771916  0.5014121000031081  0.7442416856136044
  0.5169437370654696  0.0141001819339117  0.9783819598131692
  0.9990640373514764  0.5175754871800808  0.9888182317537931
  0.5031382224574252  0.7515535112247604  0.2634366100169622
  0.2224359324595028  0.0006443010255391  0.7492075092352447
  0.4905912811595399  0.9794882106380348  0.4816236830730964
  0.7275591603373190  0.9818552498794421  0.7728379473805126
  0.0007785953892969  0.7651238063487809  0.2508745174915942
  0.7485043796914290  0.5057590279070862  0.2503205550431470
  0.0062475357398237  0.0005472322233904  0.5083105460200468
  0.4988949613697956  0.5095978562366538  0.5001431014349260
  0.7448291334296996  0.5075678464214843  0.7492944357968729
  0.7483417133992654  0.7407557813956857  0.4978713065560653
 
  0.00000000E+00  0.00000000E+00  0.00000000E+00
  0.00000000E+00  0.00000000E+00  0.00000000E+00
  0.00000000E+00  0.00000000E+00  0.00000000E+00
  0.00000000E+00  0.00000000E+00  0.00000000E+00
  0.00000000E+00  0.00000000E+00  0.00000000E+00
  0.00000000E+00  0.00000000E+00  0.00000000E+00
  0.00000000E+00  0.00000000E+00  0.00000000E+00
  0.00000000E+00  0.00000000E+00  0.00000000E+00
  0.00000000E+00  0.00000000E+00  0.00000000E+00
  0.00000000E+00  0.00000000E+00  0.00000000E+00
  0.00000000E+00  0.00000000E+00  0.00000000E+00
  0.00000000E+00  0.00000000E+00  0.00000000E+00
  0.00000000E+00  0.00000000E+00  0.00000000E+00
  0.00000000E+00  0.00000000E+00  0.00000000E+00
  0.00000000E+00  0.00000000E+00  0.00000000E+00
  0.00000000E+00  0.00000000E+00  0.00000000E+00
  0.00000000E+00  0.00000000E+00  0.00000000E+00
  0.00000000E+00  0.00000000E+00  0.00000000E+00
  0.00000000E+00  0.00000000E+00  0.00000000E+00
  0.00000000E+00  0.00000000E+00  0.00000000E+00
  0.00000000E+00  0.00000000E+00  0.00000000E+00
  0.00000000E+00  0.00000000E+00  0.00000000E+00
  0.00000000E+00  0.00000000E+00  0.00000000E+00
  0.00000000E+00  0.00000000E+00  0.00000000E+00
  0.00000000E+00  0.00000000E+00  0.00000000E+00
  0.00000000E+00  0.00000000E+00  0.00000000E+00
  0.00000000E+00  0.00000000E+00  0.00000000E+00
  0.00000000E+00  0.00000000E+00  0.00000000E+00
  0.00000000E+00  0.00000000E+00  0.00000000E+00
  0.00000000E+00  0.00000000E+00  0.00000000E+00
  0.00000000E+00  0.00000000E+00  0.00000000E+00
  0.00000000E+00  0.00000000E+00  0.00000000E+00
  0.00000000E+00  0.00000000E+00  0.00000000E+00
  0.00000000E+00  0.00000000E+00  0.00000000E+00
  0.00000000E+00  0.00000000E+00  0.00000000E+00
  0.00000000E+00  0.00000000E+00  0.00000000E+00
  0.00000000E+00  0.00000000E+00  0.00000000E+00
  0.00000000E+00  0.00000000E+00  0.00000000E+00
  0.00000000E+00  0.00000000E+00  0.00000000E+00
  0.00000000E+00  0.00000000E+00  0.00000000E+00
  0.00000000E+00  0.00000000E+00  0.00000000E+00
  0.00000000E+00  0.00000000E+00  0.00000000E+00
  0.00000000E+00  0.00000000E+00  0.00000000E+00
  0.00000000E+00  0.00000000E+00  0.00000000E+00
  0.00000000E+00  0.00000000E+00  0.00000000E+00
  0.00000000E+00  0.00000000E+00  0.00000000E+00
  0.00000000E+00  0.00000000E+00  0.00000000E+00
  0.00000000E+00  0.00000000E+00  0.00000000E+00
  0.00000000E+00  0.00000000E+00  0.00000000E+00
  0.00000000E+00  0.00000000E+00  0.00000000E+00
  0.00000000E+00  0.00000000E+00  0.00000000E+00
  0.00000000E+00  0.00000000E+00  0.00000000E+00
  0.00000000E+00  0.00000000E+00  0.00000000E+00
  0.00000000E+00  0.00000000E+00  0.00000000E+00
  0.00000000E+00  0.00000000E+00  0.00000000E+00
  0.00000000E+00  0.00000000E+00  0.00000000E+00
  0.00000000E+00  0.00000000E+00  0.00000000E+00
  0.00000000E+00  0.00000000E+00  0.00000000E+00
  0.00000000E+00  0.00000000E+00  0.00000000E+00
  0.00000000E+00  0.00000000E+00  0.00000000E+00
  0.00000000E+00  0.00000000E+00  0.00000000E+00
  0.00000000E+00  0.00000000E+00  0.00000000E+00
  0.00000000E+00  0.00000000E+00  0.00000000E+00
  0.00000000E+00  0.00000000E+00  0.00000000E+00
