53-HfVNbMoW                             
   1.00000000000000     
     8.8125872662320539    0.0153580382728988    0.0098506666105846
     0.0214366252899569    8.8009942660416325   -0.0058013760977298
     0.0415533666730801   -0.0209071247330069    8.8207532679783416
  Hf              Nb              V               N               C               W               Mo            
     7     6     7    13    19     6     6
Direct
  0.0020506760881238  0.0043724598535632  0.9998554766992110
  0.2581310322838702  0.0077157262865662  0.2426409921530794
  0.2484412001091267  0.4900748003191064  0.2535587080243369
  0.5032842723931241  0.4962039158496848  0.0011775715776810
  0.4998461891169560  0.2484373166494235  0.7413106310520685
  0.9991715154103507  0.5033368273650598  0.4996658536175114
  0.4950434074056725  0.7567676656638200  0.7552820812950699
  0.9844768899162140  0.2380405517241757  0.2563007159417513
  0.7641602522345953  0.7441497126115115  0.0094750905729073
  0.0009250165606046  0.2618068230983654  0.7507167829552014
  0.7511221598079623  0.2519060944029620  0.4891712283360899
  0.9993326929274654  0.7460097293634105  0.7491430251615460
  0.2535655604082053  0.5021191493764130  0.7445361581838252
  0.2495222473110129  0.2710609055133907  0.9809280352103018
  0.5261703231899203  0.2526047989598597  0.2383908629802273
  0.7456688339149515  0.9886224332052130  0.2780592202265123
  0.7330974107556435  0.2373091230985153  0.9863607845076499
  0.2304462290039018  0.7285666394130352  0.0005662761332326
  0.2333289319736155  0.2400760139553098  0.5142347094640373
  0.2455499437531748  0.7646689532159068  0.5012508496265601
  0.2430356390528127  0.2482202379116865  0.2467049267763352
  0.2557040821194966  0.0023193450872712  0.9919964490078224
  0.9960268420625636  0.2515776903604750  0.0026974880216767
  0.7444495664677367  0.2381715406132360  0.2382725424342831
  0.7557921579083753  0.0023652300203982  0.0242227978860438
  0.5096489300347620  0.9960736732424366  0.2359704530428047
  0.9986188416363700  0.4965504218334115  0.2473015348403218
  0.4983717304889957  0.7562856936375389  0.0053467466681905
  0.9890414914606548  0.0038086007503722  0.7484044043381467
  0.7496545764229932  0.2424861064958123  0.7496789503947383
  0.7541082372918226  0.9997314992536138  0.5228639346278251
  0.4995152807024786  0.2370041230428676  0.4888659550455441
  0.4923247940946656  0.0025130386456986  0.7454785851664000
  0.9956930943904072  0.0026428937445176  0.2551517562860308
  0.4910859186386218  0.2482314080526364  0.0002334741323943
  0.2552098251474768  0.7497380371452960  0.2467984339017259
  0.2461184919831127  0.4983234373090236  0.9981926711893025
  0.0048784341311812  0.7449285301216462  0.0058592891180646
  0.7523262246405612  0.7483802814049141  0.2520091493418022
  0.7568193403892310  0.4880639569498865  0.0093155363993088
  0.4977985767490523  0.4909536374191922  0.2528896593855709
  0.2470118593957924  0.2491689806686611  0.7481058293841627
  0.2703910544221653  0.0045520737920759  0.4979006469279190
  0.0016356771467937  0.2496449171612700  0.5023063373364552
  0.2446617934491284  0.7571256293771731  0.7539560309848261
  0.2551024633920497  0.4967532781779073  0.5015526178897775
  0.0020443008539314  0.7579488161923089  0.5024295589257919
  0.0016370802390006  0.5033655796923906  0.7484509509599205
  0.7485639118848063  0.7539627313736307  0.7514450884372719
  0.7464019413049656  0.4982600844414081  0.5070280402406933
  0.4912493246334354  0.7543935538417661  0.4999878360137253
  0.5031357059200973  0.5030673764839316  0.7449102228939293
  0.5239798709410691  0.0155144243411260  0.9920851932389387
  0.9986647175270972  0.4989171387535006  0.9863760319947616
  0.4921542453235142  0.7384043561829262  0.2576149256998672
  0.2356222797427303  0.0022390919673542  0.7337866944261137
  0.5175283035354250  0.9885915915064261  0.4717855582553860
  0.7394535425585237  0.9893891974217450  0.7756976595253825
  0.0097973346418534  0.7710563462006528  0.2600564534179662
  0.7344537019915962  0.5022655843750647  0.2589691744438224
  0.0227832409385268  0.0019415876367061  0.4995228933610540
  0.5049272520136440  0.5216740651601456  0.4924103035681750
  0.7528014300892397  0.5165455752346325  0.7634562437157363
  0.7464424836767360  0.7429987480499782  0.4892860526352084
 
  0.00000000E+00  0.00000000E+00  0.00000000E+00
  0.00000000E+00  0.00000000E+00  0.00000000E+00
  0.00000000E+00  0.00000000E+00  0.00000000E+00
  0.00000000E+00  0.00000000E+00  0.00000000E+00
  0.00000000E+00  0.00000000E+00  0.00000000E+00
  0.00000000E+00  0.00000000E+00  0.00000000E+00
  0.00000000E+00  0.00000000E+00  0.00000000E+00
  0.00000000E+00  0.00000000E+00  0.00000000E+00
  0.00000000E+00  0.00000000E+00  0.00000000E+00
  0.00000000E+00  0.00000000E+00  0.00000000E+00
  0.00000000E+00  0.00000000E+00  0.00000000E+00
  0.00000000E+00  0.00000000E+00  0.00000000E+00
  0.00000000E+00  0.00000000E+00  0.00000000E+00
  0.00000000E+00  0.00000000E+00  0.00000000E+00
  0.00000000E+00  0.00000000E+00  0.00000000E+00
  0.00000000E+00  0.00000000E+00  0.00000000E+00
  0.00000000E+00  0.00000000E+00  0.00000000E+00
  0.00000000E+00  0.00000000E+00  0.00000000E+00
  0.00000000E+00  0.00000000E+00  0.00000000E+00
  0.00000000E+00  0.00000000E+00  0.00000000E+00
  0.00000000E+00  0.00000000E+00  0.00000000E+00
  0.00000000E+00  0.00000000E+00  0.00000000E+00
  0.00000000E+00  0.00000000E+00  0.00000000E+00
  0.00000000E+00  0.00000000E+00  0.00000000E+00
  0.00000000E+00  0.00000000E+00  0.00000000E+00
  0.00000000E+00  0.00000000E+00  0.00000000E+00
  0.00000000E+00  0.00000000E+00  0.00000000E+00
  0.00000000E+00  0.00000000E+00  0.00000000E+00
  0.00000000E+00  0.00000000E+00  0.00000000E+00
  0.00000000E+00  0.00000000E+00  0.00000000E+00
  0.00000000E+00  0.00000000E+00  0.00000000E+00
  0.00000000E+00  0.00000000E+00  0.00000000E+00
  0.00000000E+00  0.00000000E+00  0.00000000E+00
  0.00000000E+00  0.00000000E+00  0.00000000E+00
  0.00000000E+00  0.00000000E+00  0.00000000E+00
  0.00000000E+00  0.00000000E+00  0.00000000E+00
  0.00000000E+00  0.00000000E+00  0.00000000E+00
  0.00000000E+00  0.00000000E+00  0.00000000E+00
  0.00000000E+00  0.00000000E+00  0.00000000E+00
  0.00000000E+00  0.00000000E+00  0.00000000E+00
  0.00000000E+00  0.00000000E+00  0.00000000E+00
  0.00000000E+00  0.00000000E+00  0.00000000E+00
  0.00000000E+00  0.00000000E+00  0.00000000E+00
  0.00000000E+00  0.00000000E+00  0.00000000E+00
  0.00000000E+00  0.00000000E+00  0.00000000E+00
  0.00000000E+00  0.00000000E+00  0.00000000E+00
  0.00000000E+00  0.00000000E+00  0.00000000E+00
  0.00000000E+00  0.00000000E+00  0.00000000E+00
  0.00000000E+00  0.00000000E+00  0.00000000E+00
  0.00000000E+00  0.00000000E+00  0.00000000E+00
  0.00000000E+00  0.00000000E+00  0.00000000E+00
  0.00000000E+00  0.00000000E+00  0.00000000E+00
  0.00000000E+00  0.00000000E+00  0.00000000E+00
  0.00000000E+00  0.00000000E+00  0.00000000E+00
  0.00000000E+00  0.00000000E+00  0.00000000E+00
  0.00000000E+00  0.00000000E+00  0.00000000E+00
  0.00000000E+00  0.00000000E+00  0.00000000E+00
  0.00000000E+00  0.00000000E+00  0.00000000E+00
  0.00000000E+00  0.00000000E+00  0.00000000E+00
  0.00000000E+00  0.00000000E+00  0.00000000E+00
  0.00000000E+00  0.00000000E+00  0.00000000E+00
  0.00000000E+00  0.00000000E+00  0.00000000E+00
  0.00000000E+00  0.00000000E+00  0.00000000E+00
  0.00000000E+00  0.00000000E+00  0.00000000E+00
