19-TiZrNbMoW                            
   1.00000000000000     
     8.8890637087173747   -0.0173118863686263    0.0277003926233300
    -0.0173697043724589    8.9068505319616733    0.0096972591268084
     0.0275494835353286    0.0096069504984373    8.8533505588455252
  Ti              Mo              Nb              N               C               Zr              W             
     7     6     6    13    19     7     6
Direct
  0.9955611849796264  0.0015347238841176  0.0027729160139319
  0.2427790307717197  0.9991352674451441  0.2494838805737929
  0.2583779123630664  0.4981640836184049  0.2541490539412805
  0.4979429525575493  0.4991254079453369  0.0008344243626628
  0.4952673470926624  0.2587668449628803  0.7534768938468329
  0.0058460509554245  0.4963083239556257  0.4970634888872666
  0.5034550578967930  0.7422747187757082  0.7501992520815164
  0.0019466815455009  0.2318111159477588  0.2701963347153962
  0.7691241530672964  0.7529568411087625  0.9896639276981719
  0.0215606301012127  0.2735739362466864  0.7516740000819082
  0.7568797992865259  0.2768988125556406  0.4756096742661352
  0.9901005267924006  0.7259598736093517  0.7501175458578634
  0.2596235342657202  0.4958360097689681  0.7466732272732025
  0.2560622348549693  0.2581349158219070  0.9943098199024200
  0.5059875429443990  0.2577520777097327  0.2475264873895624
  0.7592765899244491  0.9889456921129726  0.2441813942473266
  0.7369863096336728  0.2545568229986504  0.9974919920920607
  0.2370730668181643  0.7395195689857860  0.0012011211813764
  0.2409825744450748  0.2498213327884948  0.5052682440011993
  0.2513716791199637  0.2479711845814794  0.2510676784325260
  0.2454680468911190  0.0014203491267614  0.0069909342343906
  0.9990496235142724  0.2406533159121977  0.0057282459578264
  0.7617372696016729  0.2465734920586717  0.2404207638570753
  0.7579319798465809  0.0050320413702212  0.9972475765191491
  0.5007700231845243  0.0045388811424758  0.2471229894957742
  0.9976000788670564  0.4965737280230754  0.2616604997981231
  0.4949094400483608  0.7472149920252263  0.9900830072411690
  0.0003727264084791  0.0042079659984763  0.7492285073649773
  0.7453563862455996  0.2578495967110065  0.7492023773848046
  0.7565108083558822  0.9960745649006240  0.4912501690093805
  0.5002286476128180  0.2544722944930302  0.5041907818807495
  0.5024493433520764  0.0019014899813210  0.7489121511764684
  0.0055768329945241  0.9969422915929017  0.2444364965641911
  0.4979175117297276  0.2584944955145513  0.9958842606430467
  0.2440558506070466  0.7496884519718490  0.2460611293880968
  0.2532138032789770  0.4993560488964368  0.0045297081088771
  0.9995408629847312  0.7548138532650667  0.0019825140082501
  0.7563891672598518  0.7411305658098810  0.2507350674679449
  0.7407058188560252  0.5067489493600335  0.0076872867039993
  0.4934974853855248  0.4975351177831459  0.2491915305084173
  0.2575050502636217  0.2515283185869378  0.7489270360967211
  0.2463040995624493  0.0034386650714433  0.4923851185160498
  0.9883991947953645  0.2509843856858518  0.5152839467237558
  0.2484179079844163  0.7432483354725798  0.7555962109818040
  0.2507300860838261  0.4947198431980145  0.4964598294275041
  0.9913423071447339  0.7538151607909048  0.5012504939940107
  0.9970107226110517  0.4982176810185932  0.7472370202381365
  0.7440373337748576  0.7470408396126489  0.7457565990842325
  0.7528441370638681  0.5001570559338756  0.5056831610471400
  0.5052512036277732  0.7437938866580800  0.5059657031737619
  0.5021222901007469  0.5010912577937557  0.7505870745243309
  0.5017659006503145  0.0021325590045232  0.9984967703857192
  0.9962333520372599  0.4955568964038132  0.0104467168242649
  0.4999884070320220  0.7458201934658502  0.2458200916303752
  0.2438181958904765  0.9970027163959514  0.7525887992259264
  0.4990725855073304  0.0009696769115493  0.4980815268688420
  0.7585948441923457  0.0023486198847438  0.7434908981425151
  0.2467826299159835  0.7483069322958712  0.5013792819106325
  0.0030407281125299  0.7638600448752940  0.2543739584352336
  0.7325092127392735  0.4954908165218299  0.2476385167017479
  0.0101682839174545  0.0096259464919523  0.4876848796483258
  0.4927926439340717  0.5032407499953685  0.5002150753922177
  0.7398239363530230  0.5111602371142057  0.7696458152679956
  0.7519590522642257  0.7261798120560853  0.4994987935996635
 
  0.00000000E+00  0.00000000E+00  0.00000000E+00
  0.00000000E+00  0.00000000E+00  0.00000000E+00
  0.00000000E+00  0.00000000E+00  0.00000000E+00
  0.00000000E+00  0.00000000E+00  0.00000000E+00
  0.00000000E+00  0.00000000E+00  0.00000000E+00
  0.00000000E+00  0.00000000E+00  0.00000000E+00
  0.00000000E+00  0.00000000E+00  0.00000000E+00
  0.00000000E+00  0.00000000E+00  0.00000000E+00
  0.00000000E+00  0.00000000E+00  0.00000000E+00
  0.00000000E+00  0.00000000E+00  0.00000000E+00
  0.00000000E+00  0.00000000E+00  0.00000000E+00
  0.00000000E+00  0.00000000E+00  0.00000000E+00
  0.00000000E+00  0.00000000E+00  0.00000000E+00
  0.00000000E+00  0.00000000E+00  0.00000000E+00
  0.00000000E+00  0.00000000E+00  0.00000000E+00
  0.00000000E+00  0.00000000E+00  0.00000000E+00
  0.00000000E+00  0.00000000E+00  0.00000000E+00
  0.00000000E+00  0.00000000E+00  0.00000000E+00
  0.00000000E+00  0.00000000E+00  0.00000000E+00
  0.00000000E+00  0.00000000E+00  0.00000000E+00
  0.00000000E+00  0.00000000E+00  0.00000000E+00
  0.00000000E+00  0.00000000E+00  0.00000000E+00
  0.00000000E+00  0.00000000E+00  0.00000000E+00
  0.00000000E+00  0.00000000E+00  0.00000000E+00
  0.00000000E+00  0.00000000E+00  0.00000000E+00
  0.00000000E+00  0.00000000E+00  0.00000000E+00
  0.00000000E+00  0.00000000E+00  0.00000000E+00
  0.00000000E+00  0.00000000E+00  0.00000000E+00
  0.00000000E+00  0.00000000E+00  0.00000000E+00
  0.00000000E+00  0.00000000E+00  0.00000000E+00
  0.00000000E+00  0.00000000E+00  0.00000000E+00
  0.00000000E+00  0.00000000E+00  0.00000000E+00
  0.00000000E+00  0.00000000E+00  0.00000000E+00
  0.00000000E+00  0.00000000E+00  0.00000000E+00
  0.00000000E+00  0.00000000E+00  0.00000000E+00
  0.00000000E+00  0.00000000E+00  0.00000000E+00
  0.00000000E+00  0.00000000E+00  0.00000000E+00
  0.00000000E+00  0.00000000E+00  0.00000000E+00
  0.00000000E+00  0.00000000E+00  0.00000000E+00
  0.00000000E+00  0.00000000E+00  0.00000000E+00
  0.00000000E+00  0.00000000E+00  0.00000000E+00
  0.00000000E+00  0.00000000E+00  0.00000000E+00
  0.00000000E+00  0.00000000E+00  0.00000000E+00
  0.00000000E+00  0.00000000E+00  0.00000000E+00
  0.00000000E+00  0.00000000E+00  0.00000000E+00
  0.00000000E+00  0.00000000E+00  0.00000000E+00
  0.00000000E+00  0.00000000E+00  0.00000000E+00
  0.00000000E+00  0.00000000E+00  0.00000000E+00
  0.00000000E+00  0.00000000E+00  0.00000000E+00
  0.00000000E+00  0.00000000E+00  0.00000000E+00
  0.00000000E+00  0.00000000E+00  0.00000000E+00
  0.00000000E+00  0.00000000E+00  0.00000000E+00
  0.00000000E+00  0.00000000E+00  0.00000000E+00
  0.00000000E+00  0.00000000E+00  0.00000000E+00
  0.00000000E+00  0.00000000E+00  0.00000000E+00
  0.00000000E+00  0.00000000E+00  0.00000000E+00
  0.00000000E+00  0.00000000E+00  0.00000000E+00
  0.00000000E+00  0.00000000E+00  0.00000000E+00
  0.00000000E+00  0.00000000E+00  0.00000000E+00
  0.00000000E+00  0.00000000E+00  0.00000000E+00
  0.00000000E+00  0.00000000E+00  0.00000000E+00
  0.00000000E+00  0.00000000E+00  0.00000000E+00
  0.00000000E+00  0.00000000E+00  0.00000000E+00
  0.00000000E+00  0.00000000E+00  0.00000000E+00
