19-TiZrNbMoW                            
   1.00000000000000     
     8.9075700087039493   -0.0150085813166984    0.0269460430812005
    -0.0150517297901498    8.9312285506504150    0.0098363196919554
     0.0267974089796033    0.0097560615628537    8.8729027032471546
   Ti   Mo   Nb   N    C    Zr   W 
     7     6     6    13    19     7     6
Direct
 -0.0045908007298244  0.0021260246565327  0.0036621966633671
  0.2422499453018331 -0.0009565364355646  0.2491642411424472
  0.2588666980009561  0.4981568054629050  0.2541531276498972
  0.4978287510168308  0.4989626378548566  0.0009718179277564
  0.4951583928244256  0.2587620979751457  0.7534577864055421
  0.0064173523001817  0.4963207646110046  0.4962694844641940
  0.5034378665384162  0.7421294130284947  0.7504244132340000
  0.0012947564730429  0.2323699621756768  0.2700793927117127
  0.7700833410771774  0.7529705865874018 -0.0103415090729608
  0.0212725451846314  0.2746511713317715  0.7520433490242464
  0.7580815345232188  0.2774922286123227  0.4754463623752200
 -0.0098036458722882  0.7247994708954421  0.7496370045527065
  0.2604397404713671  0.4960744828874846  0.7468234387117054
  0.2563735620030582  0.2584846710916361 -0.0058695320185828
  0.5055185340846008  0.2577326246102513  0.2474593801734005
  0.7597531323389820 -0.0123394480011942  0.2444036354434259
  0.7370557450458753  0.2544598760308359 -0.0023222148610013
  0.2365800853092842  0.7393188490625238  0.0012116236905101
  0.2409221087054176  0.2499034789785464  0.5055907549168891
  0.2510392433038835  0.2478216791716429  0.2510705634341128
  0.2456481970995132  0.0016978992063471  0.0068369583031778
 -0.0007720748920882  0.2406726213756764  0.0059663870849177
  0.7606939270940609  0.2456739619544575  0.2409601731155271
  0.7578829456861069  0.0047735682976424 -0.0024423563550162
  0.5011236353427023  0.0044616740401485  0.2470658935370532
 -0.0020389044870292  0.4965636486558786  0.2615966959438671
  0.4946210372483399  0.7475667372803805 -0.0100771183573382
  0.0002161505404048  0.0050801429600304  0.7491789827961116
  0.7450798649464967  0.2576244553953677  0.7500474615967143
  0.7564540945298450 -0.0035212106325020  0.4910519754201781
  0.5002202254228958  0.2543271660555445  0.5038064061229778
  0.5024106775892964  0.0020200809272654  0.7488732447869422
  0.0054742158791187 -0.0030205522348860  0.2441987403005985
  0.4979937936196802  0.2584583220395510 -0.0040512868564721
  0.2440174982827274  0.7497724088941673  0.2459653648789531
  0.2532574137689816  0.4994838215009166  0.0045327877698308
 -0.0003187245766600  0.7548640220801341  0.0016983906132142
  0.7561903922908175  0.7403263439086455  0.2508322084723568
  0.7406592251152398  0.5065734770163849  0.0078244252462856
  0.4934806727261517  0.4975824669487293  0.2490424490247088
  0.2570754917488766  0.2517178420937100  0.7489998235782825
  0.2459792825471399  0.0035940758458871  0.4922865165943802
 -0.0111153571455096  0.2514476205323319  0.5155084805801874
  0.2485180580073156  0.7433766411174390  0.7556006718866797
  0.2511643179749364  0.4947191679499425  0.4965403757781245
 -0.0087416838203586  0.7544884702512653  0.5013330098978923
 -0.0026997231414909  0.4983684938491981  0.7472332990400318
  0.7441721665271759  0.7466072995953009  0.7458489976802724
  0.7532432414578937  0.4999418746512401  0.5055095381804429
  0.5054614358678976  0.7435275970851450  0.5058035409915821
  0.5022289959622686  0.5010673089532099  0.7504625679510639
  0.5017503306226909  0.0022513043612765 -0.0015789890044925
 -0.0036593235551588  0.4955223841421453  0.0108474538815915
  0.4999323581208425  0.7457427090755129  0.2455431953474213
  0.2431162721840982 -0.0029770939379674  0.7527319864794579
  0.4989620583908377  0.0009501291994880  0.4980626381182952
  0.7589273513395713  0.0020988884532379  0.7433640690300287
  0.2466088037903239  0.7483364791825802  0.5013744444960306
  0.0026617862475025  0.7634516192479438  0.2545191166687314
  0.7319419735523138  0.4954036039332154  0.2476174869115251
  0.0099068042875404  0.0108037707263359  0.4865783330912767
  0.4928132427217682  0.5033436293608050  0.4996459293564991
  0.7388864656446797  0.5107379732280403  0.7702779058055182
  0.7525931715392273  0.7252569868451763  0.4996471796460564
 
  0.00000000E+00  0.00000000E+00  0.00000000E+00
  0.00000000E+00  0.00000000E+00  0.00000000E+00
  0.00000000E+00  0.00000000E+00  0.00000000E+00
  0.00000000E+00  0.00000000E+00  0.00000000E+00
  0.00000000E+00  0.00000000E+00  0.00000000E+00
  0.00000000E+00  0.00000000E+00  0.00000000E+00
  0.00000000E+00  0.00000000E+00  0.00000000E+00
  0.00000000E+00  0.00000000E+00  0.00000000E+00
  0.00000000E+00  0.00000000E+00  0.00000000E+00
  0.00000000E+00  0.00000000E+00  0.00000000E+00
  0.00000000E+00  0.00000000E+00  0.00000000E+00
  0.00000000E+00  0.00000000E+00  0.00000000E+00
  0.00000000E+00  0.00000000E+00  0.00000000E+00
  0.00000000E+00  0.00000000E+00  0.00000000E+00
  0.00000000E+00  0.00000000E+00  0.00000000E+00
  0.00000000E+00  0.00000000E+00  0.00000000E+00
  0.00000000E+00  0.00000000E+00  0.00000000E+00
  0.00000000E+00  0.00000000E+00  0.00000000E+00
  0.00000000E+00  0.00000000E+00  0.00000000E+00
  0.00000000E+00  0.00000000E+00  0.00000000E+00
  0.00000000E+00  0.00000000E+00  0.00000000E+00
  0.00000000E+00  0.00000000E+00  0.00000000E+00
  0.00000000E+00  0.00000000E+00  0.00000000E+00
  0.00000000E+00  0.00000000E+00  0.00000000E+00
  0.00000000E+00  0.00000000E+00  0.00000000E+00
  0.00000000E+00  0.00000000E+00  0.00000000E+00
  0.00000000E+00  0.00000000E+00  0.00000000E+00
  0.00000000E+00  0.00000000E+00  0.00000000E+00
  0.00000000E+00  0.00000000E+00  0.00000000E+00
  0.00000000E+00  0.00000000E+00  0.00000000E+00
  0.00000000E+00  0.00000000E+00  0.00000000E+00
  0.00000000E+00  0.00000000E+00  0.00000000E+00
  0.00000000E+00  0.00000000E+00  0.00000000E+00
  0.00000000E+00  0.00000000E+00  0.00000000E+00
  0.00000000E+00  0.00000000E+00  0.00000000E+00
  0.00000000E+00  0.00000000E+00  0.00000000E+00
  0.00000000E+00  0.00000000E+00  0.00000000E+00
  0.00000000E+00  0.00000000E+00  0.00000000E+00
  0.00000000E+00  0.00000000E+00  0.00000000E+00
  0.00000000E+00  0.00000000E+00  0.00000000E+00
  0.00000000E+00  0.00000000E+00  0.00000000E+00
  0.00000000E+00  0.00000000E+00  0.00000000E+00
  0.00000000E+00  0.00000000E+00  0.00000000E+00
  0.00000000E+00  0.00000000E+00  0.00000000E+00
  0.00000000E+00  0.00000000E+00  0.00000000E+00
  0.00000000E+00  0.00000000E+00  0.00000000E+00
  0.00000000E+00  0.00000000E+00  0.00000000E+00
  0.00000000E+00  0.00000000E+00  0.00000000E+00
  0.00000000E+00  0.00000000E+00  0.00000000E+00
  0.00000000E+00  0.00000000E+00  0.00000000E+00
  0.00000000E+00  0.00000000E+00  0.00000000E+00
  0.00000000E+00  0.00000000E+00  0.00000000E+00
  0.00000000E+00  0.00000000E+00  0.00000000E+00
  0.00000000E+00  0.00000000E+00  0.00000000E+00
  0.00000000E+00  0.00000000E+00  0.00000000E+00
  0.00000000E+00  0.00000000E+00  0.00000000E+00
  0.00000000E+00  0.00000000E+00  0.00000000E+00
  0.00000000E+00  0.00000000E+00  0.00000000E+00
  0.00000000E+00  0.00000000E+00  0.00000000E+00
  0.00000000E+00  0.00000000E+00  0.00000000E+00
  0.00000000E+00  0.00000000E+00  0.00000000E+00
  0.00000000E+00  0.00000000E+00  0.00000000E+00
  0.00000000E+00  0.00000000E+00  0.00000000E+00
  0.00000000E+00  0.00000000E+00  0.00000000E+00
