84-ZrVNbCrW                             
   1.00000000000000     
     8.8005465454465952   -0.0139910144127603   -0.0244105596047922
    -0.0083161665285808    8.7612122257521285   -0.0162469388536870
     0.0072495955372405   -0.0314388639323078    8.8048814254869949
   V    Nb   Zr   N    C    Cr   W 
     7     6     7    13    19     6     6
Direct
  0.0014760588504981  0.9780184146653179  0.0279758371336449
  0.2295105427091337  0.9807816346582510  0.2528839787508578
  0.2760667570288166  0.5170552575691992  0.2436151232743186
  0.5010093647863129  0.4695434886819564  0.9885557314154246
  0.4768373024918906  0.2391184686420015  0.7500413913006964
  0.0027452054249090  0.4971791668170440  0.5294879153408357
  0.5040746226154479  0.7678003346806062  0.7364369675879758
 -0.0032199782322109  0.2714937331735537  0.2556858555171878
  0.7470302413115526  0.7503727126624594  0.0020351667851543
  0.0116575463467730  0.2395470545770638  0.7458326232126988
  0.7508910570074087  0.2636623948107211  0.5131220218628241
  0.0040229810856571  0.7562010582426200  0.7531740781727232
  0.2564556073143576  0.5045660953109734  0.7558783406128837
  0.2423982020905226  0.2421249845240233  0.0016847483269900
  0.4926177648294185  0.2346806139157646  0.2493684573939798
  0.7404106033849643  0.9910850786847052  0.2608096816752432
  0.7540777655232059  0.2462193835107712  0.9879040634237550
  0.2718386203740857  0.7588431234208941  0.0009835963758756
  0.2492463792347278  0.2528956841326152  0.4977743780058331
  0.2480988142957686  0.7495704778947134  0.5012628692431416
  0.2415998163006493  0.2517243479924779  0.2496081253685206
  0.2264824795723561 -0.0018357313434302  0.0071359582237204
 -0.0015400465298150  0.2448057151749684  0.0023417750426243
  0.7475574530496207  0.2514089956857987  0.2526782236401529
  0.7595454686124024  0.9946081882936360 -0.0099774092702971
  0.4885218830264098  0.9871861210067220  0.2788570252879173
  0.9920973599907374  0.5021379976836443  0.2486653015301468
  0.5137206738860605  0.7783375271318663 -0.0255702702296757
 -0.0003025478336798  0.0009535003578565  0.7466498468370112
  0.7516323528063356  0.2530381482500844  0.7434730412431517
  0.7645573927956220 -0.0004212774092489  0.5114853868845353
  0.5051946711429959  0.2482840090419480  0.5101127292768771
  0.5287946434725460  0.0067795021349396  0.7319054433192501
 -0.0016147702951905  0.0044219417676016  0.2499495658268227
  0.4996495748702997  0.2366925487388120 -0.0134351152948236
  0.2594508697597024  0.7484017587485631  0.2508267289499617
  0.2495325547206780  0.5020845909781220  0.0069739417997912
  0.0035525571417370  0.7462755147604779  0.0036770228734224
  0.7408541704322819  0.7410112758736240  0.2502206079456449
  0.7532089717134022  0.5031214520368930  0.0006629471535361
  0.4928218202485392  0.5065250799587435  0.2404237041379464
  0.2555771541877473  0.2422751838949415  0.7505027047787874
  0.2485422268964687  0.0005476832118892  0.4996596686124089
  0.9958009727937960  0.2544305851913239  0.5009581061811056
  0.2588529286300819  0.7610518709197791  0.7514844331154529
  0.2480982755307074  0.5019178597787118  0.4935458669868289
  0.9921736253205513  0.7477751882994780  0.4991541059486710
  0.9988540052150788  0.5005075669834029  0.7540032126824769
  0.7463854499933452  0.7552572445109281  0.7455442761213565
  0.7573462513616452  0.4998827193115634  0.4957113918624705
  0.5059161927176700  0.7657802624486690  0.5029936367861098
  0.5048707063235339  0.4960671423204729  0.7519651433310661
  0.5322269378785123  0.0135062514537320  0.9449245556244137
  0.0035172372328646  0.5215975454265676  0.9708396887128620
  0.5048390855559606  0.7364686139833646  0.2882798042036342
  0.2444968782484350 -0.0019205221962439  0.7455421265428208
  0.4617413767580660 -0.0011837202160853  0.5230221498995016
  0.7433343356672329  0.9744649812071879  0.7610237976747452
  0.0010355363537507  0.7537772731050895  0.2494351401769898
  0.7218266131141137  0.5060377152294999  0.2396203189316611
  0.0103966705702466  0.0019765527215466  0.4866091425184257
  0.4997729551019065  0.5069036907986558  0.5005561784186411
  0.7435808854353072  0.5148956101022576  0.7558349854592603
  0.7482512677560288  0.7316820850739183  0.4976122954720476
 
  0.00000000E+00  0.00000000E+00  0.00000000E+00
  0.00000000E+00  0.00000000E+00  0.00000000E+00
  0.00000000E+00  0.00000000E+00  0.00000000E+00
  0.00000000E+00  0.00000000E+00  0.00000000E+00
  0.00000000E+00  0.00000000E+00  0.00000000E+00
  0.00000000E+00  0.00000000E+00  0.00000000E+00
  0.00000000E+00  0.00000000E+00  0.00000000E+00
  0.00000000E+00  0.00000000E+00  0.00000000E+00
  0.00000000E+00  0.00000000E+00  0.00000000E+00
  0.00000000E+00  0.00000000E+00  0.00000000E+00
  0.00000000E+00  0.00000000E+00  0.00000000E+00
  0.00000000E+00  0.00000000E+00  0.00000000E+00
  0.00000000E+00  0.00000000E+00  0.00000000E+00
  0.00000000E+00  0.00000000E+00  0.00000000E+00
  0.00000000E+00  0.00000000E+00  0.00000000E+00
  0.00000000E+00  0.00000000E+00  0.00000000E+00
  0.00000000E+00  0.00000000E+00  0.00000000E+00
  0.00000000E+00  0.00000000E+00  0.00000000E+00
  0.00000000E+00  0.00000000E+00  0.00000000E+00
  0.00000000E+00  0.00000000E+00  0.00000000E+00
  0.00000000E+00  0.00000000E+00  0.00000000E+00
  0.00000000E+00  0.00000000E+00  0.00000000E+00
  0.00000000E+00  0.00000000E+00  0.00000000E+00
  0.00000000E+00  0.00000000E+00  0.00000000E+00
  0.00000000E+00  0.00000000E+00  0.00000000E+00
  0.00000000E+00  0.00000000E+00  0.00000000E+00
  0.00000000E+00  0.00000000E+00  0.00000000E+00
  0.00000000E+00  0.00000000E+00  0.00000000E+00
  0.00000000E+00  0.00000000E+00  0.00000000E+00
  0.00000000E+00  0.00000000E+00  0.00000000E+00
  0.00000000E+00  0.00000000E+00  0.00000000E+00
  0.00000000E+00  0.00000000E+00  0.00000000E+00
  0.00000000E+00  0.00000000E+00  0.00000000E+00
  0.00000000E+00  0.00000000E+00  0.00000000E+00
  0.00000000E+00  0.00000000E+00  0.00000000E+00
  0.00000000E+00  0.00000000E+00  0.00000000E+00
  0.00000000E+00  0.00000000E+00  0.00000000E+00
  0.00000000E+00  0.00000000E+00  0.00000000E+00
  0.00000000E+00  0.00000000E+00  0.00000000E+00
  0.00000000E+00  0.00000000E+00  0.00000000E+00
  0.00000000E+00  0.00000000E+00  0.00000000E+00
  0.00000000E+00  0.00000000E+00  0.00000000E+00
  0.00000000E+00  0.00000000E+00  0.00000000E+00
  0.00000000E+00  0.00000000E+00  0.00000000E+00
  0.00000000E+00  0.00000000E+00  0.00000000E+00
  0.00000000E+00  0.00000000E+00  0.00000000E+00
  0.00000000E+00  0.00000000E+00  0.00000000E+00
  0.00000000E+00  0.00000000E+00  0.00000000E+00
  0.00000000E+00  0.00000000E+00  0.00000000E+00
  0.00000000E+00  0.00000000E+00  0.00000000E+00
  0.00000000E+00  0.00000000E+00  0.00000000E+00
  0.00000000E+00  0.00000000E+00  0.00000000E+00
  0.00000000E+00  0.00000000E+00  0.00000000E+00
  0.00000000E+00  0.00000000E+00  0.00000000E+00
  0.00000000E+00  0.00000000E+00  0.00000000E+00
  0.00000000E+00  0.00000000E+00  0.00000000E+00
  0.00000000E+00  0.00000000E+00  0.00000000E+00
  0.00000000E+00  0.00000000E+00  0.00000000E+00
  0.00000000E+00  0.00000000E+00  0.00000000E+00
  0.00000000E+00  0.00000000E+00  0.00000000E+00
  0.00000000E+00  0.00000000E+00  0.00000000E+00
  0.00000000E+00  0.00000000E+00  0.00000000E+00
  0.00000000E+00  0.00000000E+00  0.00000000E+00
  0.00000000E+00  0.00000000E+00  0.00000000E+00
