TiZrHfVTa                               
   1.00000000000000     
     8.8700713873117447   -0.0015159735424470   -0.0037543093475604
    -0.0016219782316529    8.9854182951791106   -0.0063301257431390
    -0.0037320281191548   -0.0063654576110858    8.8777062636805031
  Ti              Ta              Hf              N               C               Zr              V             
     7     6     6    13    19     7     6
Direct
  0.9997517246267620  0.9939047316807209  0.0142351814661986
  0.2422706560575888  0.9929147904391883  0.2529313145522391
  0.2596487113746287  0.5058101852443175  0.2521767032577213
  0.5010357229784695  0.5013988802972389  0.0016455979270684
  0.4978600303014977  0.2634273582521690  0.7478856015544699
  0.9990259498710976  0.5030395483072346  0.4897381264942718
  0.5045854578637714  0.7374902728113845  0.7451194980573823
  0.9988481601582487  0.2405081245579080  0.2615571271832115
  0.7532771128086059  0.7406680633762016  0.0035894545700661
  0.0012705259386794  0.2650432113612081  0.7390269968958214
  0.7515153586394245  0.2732811169594972  0.5055869933902503
  0.9946388295302864  0.7367543259413893  0.7413436247207725
  0.2576761254905577  0.5012022077482866  0.7481123266292450
  0.2477902035722037  0.2528798204126156  0.0013787427633328
  0.5028146075427572  0.2556923560894907  0.2517513366374011
  0.7560634261494351  0.9916437001014313  0.2572748613239486
  0.7508322073700592  0.2567798294770333  0.9939044530474949
  0.2474491214205458  0.7484783374603896  0.0010991809620229
  0.2503828322742272  0.2538377646163721  0.4981413803114112
  0.2481726604482253  0.2495871134186358  0.2497762161044420
  0.2439575411027761  0.0004333717443788  0.0058871578082256
  0.9993090200546920  0.2427150609829947  0.0025456311210610
  0.7529498036810278  0.2506638798838786  0.2535308828865600
  0.7558054731487808  0.0002197759718613  0.0018050291257996
  0.5012593689387494  0.0048664987168633  0.2490145204454480
  0.0006170529970496  0.4899511421753142  0.2577969495006361
  0.5024119741934592  0.7462247543632214  0.9944064718199933
  0.9973325039431957  0.0022777422933178  0.7521412161817912
  0.7478689321965900  0.2532396300991608  0.7471016006895891
  0.7553314336295089  0.0139450832570093  0.4985740891130293
  0.5050691225756924  0.2535996319605692  0.5024797627090826
  0.5034161773605579  0.0000337131563493  0.7501254696618751
  0.0035910011850167  0.9974367176969322  0.2515189879900359
  0.5008948735640587  0.2534140028572230  0.9969045228498047
  0.2406453122861424  0.7486329489997791  0.2483364249624544
  0.2547540520592210  0.5002031331206582  0.0033558988409253
  0.9956111348373518  0.7558219074038052  0.0027791599495618
  0.7586138772281471  0.7401308813234092  0.2541749271545897
  0.7439670639672948  0.5024026419219803  0.0022523892031565
  0.5023163042674972  0.4994268813312103  0.2523542972890739
  0.2514797709517410  0.2542258689415796  0.7499212182206427
  0.2420744428949828  0.0020264173996329  0.4927830256502947
  0.9970741381016586  0.2497260683081522  0.5000593845584468
  0.2495523540216661  0.7455925937660234  0.7515910289432979
  0.2528104749433970  0.4984757372243559  0.4963167932978781
  0.9886279862075139  0.7523978756602114  0.4946759282448069
  0.9955515786304006  0.5001924670131348  0.7434653432990005
  0.7471992470886434  0.7397304081623417  0.7474015361823996
  0.7494844436392645  0.5064477635628502  0.4977827264750908
  0.5091674665403159  0.7403367035133903  0.5065738951872087
  0.5050223915456238  0.5002237044184887  0.7472779926679705
  0.4996460207280166  0.0008843238690444  0.9976457427970856
  0.9992524773092556  0.5026406877991203  0.0102307128909701
  0.5016417970681433  0.7460036537625320  0.2530743702019013
  0.2420945679822325  0.9989047513039852  0.7480315656577708
  0.4974428510957392  0.9924728826648191  0.5014937199131122
  0.7567685405194295  0.9890644050609361  0.7418516973473286
  0.2457488608506480  0.7459521052198042  0.4984572333458872
  0.9984677558425258  0.7687289053218349  0.2595481947581036
  0.7352303806366706  0.5107722523561182  0.2460726842153959
  0.0078879508648214  0.9963749097974112  0.4824110280481669
  0.5066100841063051  0.5079769990990129  0.4978515919344388
  0.7394069084351280  0.5072862627679494  0.7566681502481613
  0.7511267343620370  0.7235817871946971  0.4954550007632453
 
  0.00000000E+00  0.00000000E+00  0.00000000E+00
  0.00000000E+00  0.00000000E+00  0.00000000E+00
  0.00000000E+00  0.00000000E+00  0.00000000E+00
  0.00000000E+00  0.00000000E+00  0.00000000E+00
  0.00000000E+00  0.00000000E+00  0.00000000E+00
  0.00000000E+00  0.00000000E+00  0.00000000E+00
  0.00000000E+00  0.00000000E+00  0.00000000E+00
  0.00000000E+00  0.00000000E+00  0.00000000E+00
  0.00000000E+00  0.00000000E+00  0.00000000E+00
  0.00000000E+00  0.00000000E+00  0.00000000E+00
  0.00000000E+00  0.00000000E+00  0.00000000E+00
  0.00000000E+00  0.00000000E+00  0.00000000E+00
  0.00000000E+00  0.00000000E+00  0.00000000E+00
  0.00000000E+00  0.00000000E+00  0.00000000E+00
  0.00000000E+00  0.00000000E+00  0.00000000E+00
  0.00000000E+00  0.00000000E+00  0.00000000E+00
  0.00000000E+00  0.00000000E+00  0.00000000E+00
  0.00000000E+00  0.00000000E+00  0.00000000E+00
  0.00000000E+00  0.00000000E+00  0.00000000E+00
  0.00000000E+00  0.00000000E+00  0.00000000E+00
  0.00000000E+00  0.00000000E+00  0.00000000E+00
  0.00000000E+00  0.00000000E+00  0.00000000E+00
  0.00000000E+00  0.00000000E+00  0.00000000E+00
  0.00000000E+00  0.00000000E+00  0.00000000E+00
  0.00000000E+00  0.00000000E+00  0.00000000E+00
  0.00000000E+00  0.00000000E+00  0.00000000E+00
  0.00000000E+00  0.00000000E+00  0.00000000E+00
  0.00000000E+00  0.00000000E+00  0.00000000E+00
  0.00000000E+00  0.00000000E+00  0.00000000E+00
  0.00000000E+00  0.00000000E+00  0.00000000E+00
  0.00000000E+00  0.00000000E+00  0.00000000E+00
  0.00000000E+00  0.00000000E+00  0.00000000E+00
  0.00000000E+00  0.00000000E+00  0.00000000E+00
  0.00000000E+00  0.00000000E+00  0.00000000E+00
  0.00000000E+00  0.00000000E+00  0.00000000E+00
  0.00000000E+00  0.00000000E+00  0.00000000E+00
  0.00000000E+00  0.00000000E+00  0.00000000E+00
  0.00000000E+00  0.00000000E+00  0.00000000E+00
  0.00000000E+00  0.00000000E+00  0.00000000E+00
  0.00000000E+00  0.00000000E+00  0.00000000E+00
  0.00000000E+00  0.00000000E+00  0.00000000E+00
  0.00000000E+00  0.00000000E+00  0.00000000E+00
  0.00000000E+00  0.00000000E+00  0.00000000E+00
  0.00000000E+00  0.00000000E+00  0.00000000E+00
  0.00000000E+00  0.00000000E+00  0.00000000E+00
  0.00000000E+00  0.00000000E+00  0.00000000E+00
  0.00000000E+00  0.00000000E+00  0.00000000E+00
  0.00000000E+00  0.00000000E+00  0.00000000E+00
  0.00000000E+00  0.00000000E+00  0.00000000E+00
  0.00000000E+00  0.00000000E+00  0.00000000E+00
  0.00000000E+00  0.00000000E+00  0.00000000E+00
  0.00000000E+00  0.00000000E+00  0.00000000E+00
  0.00000000E+00  0.00000000E+00  0.00000000E+00
  0.00000000E+00  0.00000000E+00  0.00000000E+00
  0.00000000E+00  0.00000000E+00  0.00000000E+00
  0.00000000E+00  0.00000000E+00  0.00000000E+00
  0.00000000E+00  0.00000000E+00  0.00000000E+00
  0.00000000E+00  0.00000000E+00  0.00000000E+00
  0.00000000E+00  0.00000000E+00  0.00000000E+00
  0.00000000E+00  0.00000000E+00  0.00000000E+00
  0.00000000E+00  0.00000000E+00  0.00000000E+00
  0.00000000E+00  0.00000000E+00  0.00000000E+00
  0.00000000E+00  0.00000000E+00  0.00000000E+00
  0.00000000E+00  0.00000000E+00  0.00000000E+00
