TiZrHfVTa                               
   1.00000000000000     
     8.8706730225420962   -0.0004617583326443   -0.0044139937211634
    -0.0005539669441540    8.9825801190110113   -0.0061010314640259
    -0.0043927193664060   -0.0061368177227684    8.8789291884779278
   Ti   Ta   Hf   N    C    Zr   V 
     7     6     6    13    19     7     6
Direct
 -0.0002688079194891  0.9939029227334717  0.0142112882843673
  0.2422577312246051  0.9928900156567508  0.2529322306144540
  0.2596694417269266  0.5058167041906293  0.2521942761826611
  0.5010469089679979  0.5014140326786478  0.0015974611874317
  0.4979006572608526  0.2634231823664325  0.7478909603342893
  0.9990789269522603  0.5030271776760049  0.4897469933471935
  0.5045905737679931  0.7375037975506862  0.7450891743403907
  0.9988662922368116  0.2405291660531914  0.2615595088420002
  0.7532626597698336  0.7406753376555512  0.0036506079644341
  0.0012653203423507  0.2650413314544955  0.7390307899284412
  0.7515292638992627  0.2732672032134729  0.5055788229482022
  0.9946115601524149  0.7367547494076796  0.7413624375871681
  0.2576632485118986  0.5011985295283459  0.7481195661972101
  0.2477967490728125  0.2528572813217639  0.0013822731095717
  0.5028220304984629  0.2556801693547979  0.2517464838006360
  0.7560724368707425  0.9916726267035135  0.2572630285693892
  0.7508259673387042  0.2567806166940712  0.9939008018897080
  0.2474657851947865  0.7484849951328174  0.0010937154468723
  0.2504025047840538  0.2538429289241838  0.4981437498724443
  0.2481674657108632  0.2495764598451840  0.2497705103508014
  0.2439694978196515  0.0004179983355514  0.0058903799593423
 -0.0006953771485457  0.2427292885268909  0.0025274132878543
  0.7529517071751484  0.2507081632442041  0.2535341263082931
  0.7557693176493554  0.0002371768047741  0.0018153392702646
  0.5012794997923189  0.0048733004152415  0.2490144200075595
  0.0006557728642263  0.4899131586454490  0.2578006697861503
  0.5024446904094531  0.7462111717653974  0.9944010297987835
  0.9973123314514716  0.0022605164189162  0.7521356315406792
  0.7478838342127897  0.2532696272141390  0.7470992111709901
  0.7553100662906846  0.0139964501986746  0.4985762784838920
  0.5050652761028908  0.2536212740702162  0.5024627559519474
  0.5034082195188945  0.0000290495572197  0.7501329280179462
  0.0035931735055163  0.9974221529731813  0.2515524691816643
  0.5008983660354215  0.2534184658621819  0.9969023200253101
  0.2406494272280219  0.7486241807095487  0.2483349359078246
  0.2547406376277654  0.5002018983501836  0.0033595168431384
  0.9956194799312920  0.7558193571859380  0.0027764360515192
  0.7586163730612870  0.7400965895740297  0.2541811388994616
  0.7439667784767716  0.5024139544667694  0.0022725726188141
  0.5022808944712931  0.4994317210733963  0.2523464251732409
  0.2514788132706609  0.2542075877639701  0.7499242688096898
  0.2420973360524948  0.0020105620745142  0.4927942508580410
  0.9970829446462309  0.2497364167867260  0.5000654970348039
  0.2495508169394222  0.7455830712082366  0.7515809722799892
  0.2528073100783297  0.4984881491341531  0.4963200021388275
  0.9886228043717349  0.7523890159906362  0.4946837757916367
  0.9955474939093183  0.5001913881661406  0.7434840290561269
  0.7472051560493425  0.7397215633451345  0.7473953082735810
  0.7494907559817159  0.5064619587155732  0.4977676770506793
  0.5091458240115428  0.7403139521074736  0.5065580992923699
  0.5050149906820859  0.5002261142383509  0.7472834721508755
  0.4996488315478930  0.0008705144389367 -0.0023546921881739
  0.9992531824345373  0.5026483773766784  0.0102469461325310
  0.5016360059868300  0.7460209842413132  0.2530739859441028
  0.2421087661324434  0.9989003498292299  0.7480362123027436
  0.4974283618896241  0.9924625545926599  0.5014928732399506
  0.7567395196073339  0.9890774162109160  0.7418571161677459
  0.2457172943618340  0.7459673958551394  0.4984566180064445
  0.9984697452331948  0.7687805916543926  0.2595154150422112
  0.7351957374977287  0.5107259783777798  0.2461397739361982
  0.0078788447668586  0.9963860328158579  0.4824272300905098
  0.5065716536918635  0.5079790100776501  0.4979237348598695
  0.7393978876353345  0.5072601383344828  0.7565635786379874
  0.7511639123818411  0.7235568251305242  0.4953838480089710
 
  0.00000000E+00  0.00000000E+00  0.00000000E+00
  0.00000000E+00  0.00000000E+00  0.00000000E+00
  0.00000000E+00  0.00000000E+00  0.00000000E+00
  0.00000000E+00  0.00000000E+00  0.00000000E+00
  0.00000000E+00  0.00000000E+00  0.00000000E+00
  0.00000000E+00  0.00000000E+00  0.00000000E+00
  0.00000000E+00  0.00000000E+00  0.00000000E+00
  0.00000000E+00  0.00000000E+00  0.00000000E+00
  0.00000000E+00  0.00000000E+00  0.00000000E+00
  0.00000000E+00  0.00000000E+00  0.00000000E+00
  0.00000000E+00  0.00000000E+00  0.00000000E+00
  0.00000000E+00  0.00000000E+00  0.00000000E+00
  0.00000000E+00  0.00000000E+00  0.00000000E+00
  0.00000000E+00  0.00000000E+00  0.00000000E+00
  0.00000000E+00  0.00000000E+00  0.00000000E+00
  0.00000000E+00  0.00000000E+00  0.00000000E+00
  0.00000000E+00  0.00000000E+00  0.00000000E+00
  0.00000000E+00  0.00000000E+00  0.00000000E+00
  0.00000000E+00  0.00000000E+00  0.00000000E+00
  0.00000000E+00  0.00000000E+00  0.00000000E+00
  0.00000000E+00  0.00000000E+00  0.00000000E+00
  0.00000000E+00  0.00000000E+00  0.00000000E+00
  0.00000000E+00  0.00000000E+00  0.00000000E+00
  0.00000000E+00  0.00000000E+00  0.00000000E+00
  0.00000000E+00  0.00000000E+00  0.00000000E+00
  0.00000000E+00  0.00000000E+00  0.00000000E+00
  0.00000000E+00  0.00000000E+00  0.00000000E+00
  0.00000000E+00  0.00000000E+00  0.00000000E+00
  0.00000000E+00  0.00000000E+00  0.00000000E+00
  0.00000000E+00  0.00000000E+00  0.00000000E+00
  0.00000000E+00  0.00000000E+00  0.00000000E+00
  0.00000000E+00  0.00000000E+00  0.00000000E+00
  0.00000000E+00  0.00000000E+00  0.00000000E+00
  0.00000000E+00  0.00000000E+00  0.00000000E+00
  0.00000000E+00  0.00000000E+00  0.00000000E+00
  0.00000000E+00  0.00000000E+00  0.00000000E+00
  0.00000000E+00  0.00000000E+00  0.00000000E+00
  0.00000000E+00  0.00000000E+00  0.00000000E+00
  0.00000000E+00  0.00000000E+00  0.00000000E+00
  0.00000000E+00  0.00000000E+00  0.00000000E+00
  0.00000000E+00  0.00000000E+00  0.00000000E+00
  0.00000000E+00  0.00000000E+00  0.00000000E+00
  0.00000000E+00  0.00000000E+00  0.00000000E+00
  0.00000000E+00  0.00000000E+00  0.00000000E+00
  0.00000000E+00  0.00000000E+00  0.00000000E+00
  0.00000000E+00  0.00000000E+00  0.00000000E+00
  0.00000000E+00  0.00000000E+00  0.00000000E+00
  0.00000000E+00  0.00000000E+00  0.00000000E+00
  0.00000000E+00  0.00000000E+00  0.00000000E+00
  0.00000000E+00  0.00000000E+00  0.00000000E+00
  0.00000000E+00  0.00000000E+00  0.00000000E+00
  0.00000000E+00  0.00000000E+00  0.00000000E+00
  0.00000000E+00  0.00000000E+00  0.00000000E+00
  0.00000000E+00  0.00000000E+00  0.00000000E+00
  0.00000000E+00  0.00000000E+00  0.00000000E+00
  0.00000000E+00  0.00000000E+00  0.00000000E+00
  0.00000000E+00  0.00000000E+00  0.00000000E+00
  0.00000000E+00  0.00000000E+00  0.00000000E+00
  0.00000000E+00  0.00000000E+00  0.00000000E+00
  0.00000000E+00  0.00000000E+00  0.00000000E+00
  0.00000000E+00  0.00000000E+00  0.00000000E+00
  0.00000000E+00  0.00000000E+00  0.00000000E+00
  0.00000000E+00  0.00000000E+00  0.00000000E+00
  0.00000000E+00  0.00000000E+00  0.00000000E+00
