29-TiHfNbMoW                            
   1.00000000000000     
     8.8587272434435693    0.0235042918564733    0.0368173041668741
     0.0236491580563901    8.8748164992815859   -0.0097654695254200
     0.0368227482691748   -0.0096809869660601    8.8516036632468360
  Ti              Mo              Hf              N               C               W               Nb            
     7     6     7    13    19     6     6
Direct
  0.0068095743138951  0.9912354963769826  0.9984096682275924
  0.2490137960111878  0.9949490736237926  0.2579940069344127
  0.2505437759841920  0.5075429137822843  0.2473383210678455
  0.4978455841977562  0.4882974421902699  0.9961773916478456
  0.4907797907427334  0.2451549426791321  0.7522769932557424
  0.0021166747654479  0.4992185772490740  0.5086915677778318
  0.5013934520243231  0.7485178194839457  0.7450437882078635
  0.9914694256440059  0.2348240998920490  0.2687237259070164
  0.7705787869790026  0.7448110067604354  0.9932278167116436
  0.0246967787176407  0.2454682488814444  0.7422397491952208
  0.7639760704761468  0.2662162633995404  0.4859940789386657
  0.9977003738325043  0.7347805502224946  0.7605668640372627
  0.2562945000795602  0.5063634734533063  0.7540613161840292
  0.2442613157963105  0.2487408829191678  0.9992855387923523
  0.4993590986364655  0.2530840692747104  0.2467198841476095
  0.7500481665409295  0.9983705914288928  0.2526707938829332
  0.7569498899192111  0.2521996152256398  0.9875925322302628
  0.2619204036854264  0.7554459833465444  0.0006087363216647
  0.2515346425618074  0.2527551857368298  0.5016561766004820
  0.2458070392214350  0.7486166293196728  0.5040928093970235
  0.2494624527502810  0.2469741007047210  0.2516083329700054
  0.2567527142612160  0.0028482380171185  0.0015958805225998
  0.0003736354897837  0.2533901753313588  0.0073577346017557
  0.7484739870039233  0.2468707166945834  0.2426072907956731
  0.7583393315556427  0.9996026222998065  0.0032030533727426
  0.4964545339587044  0.9978842050750224  0.2385622230378548
  0.0048556743968766  0.4941544246648645  0.2457493645594384
  0.5073753294560484  0.7573717956053844  0.0005327878349655
  0.9764624838341328  0.0066507282371628  0.7581791403313909
  0.7451270532458715  0.2393040034071193  0.7416245216146444
  0.7387842655957653  0.0034122670878065  0.5078664881958265
  0.5030220827361783  0.2414136867366800  0.4997538707215481
  0.4861152349260139  0.0009419324692498  0.7383473095860120
  0.0038160851350427  0.9998942903792173  0.2479748258030962
  0.5017278907881817  0.2541539446364792  0.9942984417551550
  0.2549773734434486  0.7515755936467748  0.2514843563953440
  0.2494274588670148  0.5030352483475697  0.0048342157213114
  0.0093882303035974  0.7562434154792571  0.0023060219359701
  0.7464983467156784  0.7482917183073304  0.2439240447020841
  0.7514406293619904  0.5048355504350853  0.9986650214113992
  0.4975899468090726  0.5039321383720097  0.2462520986490545
  0.2598832275589134  0.2507848721219321  0.7500314381095822
  0.2520215393696238  0.0000019813289564  0.5007707701689044
  0.9969899687395133  0.2562760135883911  0.5086277274865193
  0.2495340656436110  0.7578462797077015  0.7525054904450046
  0.2464979795403284  0.5001814529693088  0.4958242270007309
  0.9955960778190580  0.7469358687358788  0.5064399727980582
  0.0006829892246446  0.4929162909601601  0.7519700837704582
  0.7435068632650823  0.7524251203278230  0.7504360850703864
  0.7553659654886494  0.4988033319417984  0.4988136217045465
  0.4969261858974020  0.7486631413262663  0.5071255214489906
  0.4976447639511083  0.5008910202750331  0.7524811615947504
  0.5123360476292397  0.0156170568572237  0.9830199315714341
  0.0023725173680793  0.5180068733087123  0.9914745767866571
  0.5026316703054308  0.7439248152094152  0.2644712349563060
  0.2281170800418096  0.0013896911129104  0.7453530547975326
  0.4894542067559742  0.9837345932360356  0.4892003935727864
  0.7273331935009654  0.9840534997596340  0.7683348412072833
  0.0005991901922753  0.7580495597760657  0.2504806357631757
  0.7492668320543493  0.5005810396504531  0.2490738255029845
  0.0044384536109333  0.0041114439037650  0.5054490312815371
  0.4974205636586021  0.5073246116268423  0.5012511439408764
  0.7416971824221437  0.5091419122153206  0.7499306052966995
  0.7501202271978866  0.7389665408796163  0.4968365137416917
 
  0.00000000E+00  0.00000000E+00  0.00000000E+00
  0.00000000E+00  0.00000000E+00  0.00000000E+00
  0.00000000E+00  0.00000000E+00  0.00000000E+00
  0.00000000E+00  0.00000000E+00  0.00000000E+00
  0.00000000E+00  0.00000000E+00  0.00000000E+00
  0.00000000E+00  0.00000000E+00  0.00000000E+00
  0.00000000E+00  0.00000000E+00  0.00000000E+00
  0.00000000E+00  0.00000000E+00  0.00000000E+00
  0.00000000E+00  0.00000000E+00  0.00000000E+00
  0.00000000E+00  0.00000000E+00  0.00000000E+00
  0.00000000E+00  0.00000000E+00  0.00000000E+00
  0.00000000E+00  0.00000000E+00  0.00000000E+00
  0.00000000E+00  0.00000000E+00  0.00000000E+00
  0.00000000E+00  0.00000000E+00  0.00000000E+00
  0.00000000E+00  0.00000000E+00  0.00000000E+00
  0.00000000E+00  0.00000000E+00  0.00000000E+00
  0.00000000E+00  0.00000000E+00  0.00000000E+00
  0.00000000E+00  0.00000000E+00  0.00000000E+00
  0.00000000E+00  0.00000000E+00  0.00000000E+00
  0.00000000E+00  0.00000000E+00  0.00000000E+00
  0.00000000E+00  0.00000000E+00  0.00000000E+00
  0.00000000E+00  0.00000000E+00  0.00000000E+00
  0.00000000E+00  0.00000000E+00  0.00000000E+00
  0.00000000E+00  0.00000000E+00  0.00000000E+00
  0.00000000E+00  0.00000000E+00  0.00000000E+00
  0.00000000E+00  0.00000000E+00  0.00000000E+00
  0.00000000E+00  0.00000000E+00  0.00000000E+00
  0.00000000E+00  0.00000000E+00  0.00000000E+00
  0.00000000E+00  0.00000000E+00  0.00000000E+00
  0.00000000E+00  0.00000000E+00  0.00000000E+00
  0.00000000E+00  0.00000000E+00  0.00000000E+00
  0.00000000E+00  0.00000000E+00  0.00000000E+00
  0.00000000E+00  0.00000000E+00  0.00000000E+00
  0.00000000E+00  0.00000000E+00  0.00000000E+00
  0.00000000E+00  0.00000000E+00  0.00000000E+00
  0.00000000E+00  0.00000000E+00  0.00000000E+00
  0.00000000E+00  0.00000000E+00  0.00000000E+00
  0.00000000E+00  0.00000000E+00  0.00000000E+00
  0.00000000E+00  0.00000000E+00  0.00000000E+00
  0.00000000E+00  0.00000000E+00  0.00000000E+00
  0.00000000E+00  0.00000000E+00  0.00000000E+00
  0.00000000E+00  0.00000000E+00  0.00000000E+00
  0.00000000E+00  0.00000000E+00  0.00000000E+00
  0.00000000E+00  0.00000000E+00  0.00000000E+00
  0.00000000E+00  0.00000000E+00  0.00000000E+00
  0.00000000E+00  0.00000000E+00  0.00000000E+00
  0.00000000E+00  0.00000000E+00  0.00000000E+00
  0.00000000E+00  0.00000000E+00  0.00000000E+00
  0.00000000E+00  0.00000000E+00  0.00000000E+00
  0.00000000E+00  0.00000000E+00  0.00000000E+00
  0.00000000E+00  0.00000000E+00  0.00000000E+00
  0.00000000E+00  0.00000000E+00  0.00000000E+00
  0.00000000E+00  0.00000000E+00  0.00000000E+00
  0.00000000E+00  0.00000000E+00  0.00000000E+00
  0.00000000E+00  0.00000000E+00  0.00000000E+00
  0.00000000E+00  0.00000000E+00  0.00000000E+00
  0.00000000E+00  0.00000000E+00  0.00000000E+00
  0.00000000E+00  0.00000000E+00  0.00000000E+00
  0.00000000E+00  0.00000000E+00  0.00000000E+00
  0.00000000E+00  0.00000000E+00  0.00000000E+00
  0.00000000E+00  0.00000000E+00  0.00000000E+00
  0.00000000E+00  0.00000000E+00  0.00000000E+00
  0.00000000E+00  0.00000000E+00  0.00000000E+00
  0.00000000E+00  0.00000000E+00  0.00000000E+00
