68-TiHfNbCrW                            
   1.00000000000000     
     8.7878428994246089    0.0238655569257936   -0.0101494732138330
     0.0303170598814868    8.7734324825949379    0.0040419835937221
     0.0213632236846778   -0.0110638509933430    8.7735972606328065
   Hf   Nb   Ti   N    C    Cr   W 
     7     6     7    13    19     6     6
Direct
  0.0002208724945310  0.9989677749574553  0.9967055016892310
  0.2678324320523786  0.0029495341864871  0.2459255503139091
  0.2459359761372295  0.4941827227398268  0.2465633541940684
  0.5000421746386198  0.4998892380238233  0.0017612336779212
  0.5072178437513390  0.2445491029096029  0.7431486125151887
 -0.0001003654891145  0.5019435363827409  0.5014336791380128
  0.4956151151844209  0.7596728397463437  0.7508873007056466
  0.9879420816481995  0.2401400744372921  0.2524495807426049
  0.7563707135290325  0.7460233095870002  0.0105020257825019
  0.0021414828601285  0.2509540862361452  0.7496932750911179
  0.7537056350755900  0.2490636821475311  0.4944732737488442
 -0.0008489908359102  0.7496199408264455  0.7522149700094757
  0.2491855797747561  0.4944167077637708  0.7503122148120137
  0.2567413579524536  0.2427328913213499  0.9896612953666318
  0.5098101235220429  0.2534161832757622  0.2514422302518448
  0.7330526250066827  0.9937883382727803  0.2610483421747974
  0.7442897248308350  0.2448943166146629  0.0002005708597932
  0.2469374505436809  0.7485038583851847  0.9968071653878967
  0.2510328526148003  0.2461689958659356  0.5067435197079971
  0.2508289664818215  0.7524318826361727  0.5036035293314629
  0.2518188343365182  0.2478483579398069  0.2480009221175365
  0.2541656904924440  0.0021165865971929  0.9963981082872775
  0.0017229587860368  0.2522395262927989 -0.0000123244390772
  0.7431337934249229  0.2399439254260857  0.2436681109172173
  0.7464816815868671  0.0011591866970334  0.0045442405961174
  0.5079120506610338  0.0003148574706326  0.2575289902256588
  0.9950133041931155  0.5024595530068180  0.2456568885912691
  0.4976554989981562  0.7600798273654662  0.0047087359661513
  0.9852312573582667  0.0039191705604770  0.7431040158527324
  0.7532305755561076  0.2502952365951098  0.7516093790458921
  0.7601163901785218  0.0023616895977147  0.4929967258057231
  0.4989630110725465  0.2469491039060807  0.4928950088030338
  0.5226424759785537  0.0016069552845923  0.7457220260221699
  0.9985214906855688 -0.0002576845155630  0.2513940194264163
  0.5018070249050578  0.2405915619399950  0.0012870851618266
  0.2538833259313377  0.7496638153138147  0.2498116513638795
  0.2424985929150317  0.4999535485966476  0.9959889890530648
  0.0045776020161181  0.7430142489367865  0.0050305109651508
  0.7466069364522070  0.7463395418158082  0.2535316658413385
  0.7616574214384330  0.4940005288960533  0.0054627039796804
  0.4992794689628682  0.5012055432823257  0.2507795620466362
  0.2517373453933084  0.2447029165243863  0.7486690332411244
  0.2548767854475865  0.0002323780540447  0.5106477536878503
  0.0050642644718371  0.2491134975120305  0.5005100147652328
  0.2444493626508036  0.7588026740680563  0.7511527251021834
  0.2549225406123105  0.5018092309312160  0.4998205209913087
 -0.0013851081368124  0.7570876205891082  0.4991954832826517
  0.9993040931736575  0.5011239471112593  0.7537274154459225
  0.7488345638799090  0.7544438753114164  0.7490695112022676
  0.7471564379485927  0.4977097662160360  0.5062826237225300
  0.4979304867762532  0.7648759422289543  0.4899264854259781
  0.5047357733167092  0.5023292756450026  0.7441115457236420
  0.5218661888870771  0.0103376743043756  0.9732911010299816
 -0.0008043086201935  0.5127274541406225  0.9800089770334931
  0.4773985538884671  0.7362259312212696  0.2583006245335262
  0.2220572676090426  0.0136563483645190  0.7413181394454715
  0.4723372207239532  0.9929383324682463  0.5183628172515045
  0.7391568038985268  0.9695275280177780  0.7826013788836504
  0.0162520704242196  0.7660751831485872  0.2535438377542834
  0.7404462047111608  0.4920310659002320  0.2543075295952643
  0.0173069892697853  0.0044539530799535  0.4974778537200432
  0.5032461333905819  0.5171254994727319  0.4896592930467410
  0.7539892630209172  0.5152037418082520  0.7622351450452967
  0.7442484055590596  0.7373518175599362  0.4900960849394167
 
  0.00000000E+00  0.00000000E+00  0.00000000E+00
  0.00000000E+00  0.00000000E+00  0.00000000E+00
  0.00000000E+00  0.00000000E+00  0.00000000E+00
  0.00000000E+00  0.00000000E+00  0.00000000E+00
  0.00000000E+00  0.00000000E+00  0.00000000E+00
  0.00000000E+00  0.00000000E+00  0.00000000E+00
  0.00000000E+00  0.00000000E+00  0.00000000E+00
  0.00000000E+00  0.00000000E+00  0.00000000E+00
  0.00000000E+00  0.00000000E+00  0.00000000E+00
  0.00000000E+00  0.00000000E+00  0.00000000E+00
  0.00000000E+00  0.00000000E+00  0.00000000E+00
  0.00000000E+00  0.00000000E+00  0.00000000E+00
  0.00000000E+00  0.00000000E+00  0.00000000E+00
  0.00000000E+00  0.00000000E+00  0.00000000E+00
  0.00000000E+00  0.00000000E+00  0.00000000E+00
  0.00000000E+00  0.00000000E+00  0.00000000E+00
  0.00000000E+00  0.00000000E+00  0.00000000E+00
  0.00000000E+00  0.00000000E+00  0.00000000E+00
  0.00000000E+00  0.00000000E+00  0.00000000E+00
  0.00000000E+00  0.00000000E+00  0.00000000E+00
  0.00000000E+00  0.00000000E+00  0.00000000E+00
  0.00000000E+00  0.00000000E+00  0.00000000E+00
  0.00000000E+00  0.00000000E+00  0.00000000E+00
  0.00000000E+00  0.00000000E+00  0.00000000E+00
  0.00000000E+00  0.00000000E+00  0.00000000E+00
  0.00000000E+00  0.00000000E+00  0.00000000E+00
  0.00000000E+00  0.00000000E+00  0.00000000E+00
  0.00000000E+00  0.00000000E+00  0.00000000E+00
  0.00000000E+00  0.00000000E+00  0.00000000E+00
  0.00000000E+00  0.00000000E+00  0.00000000E+00
  0.00000000E+00  0.00000000E+00  0.00000000E+00
  0.00000000E+00  0.00000000E+00  0.00000000E+00
  0.00000000E+00  0.00000000E+00  0.00000000E+00
  0.00000000E+00  0.00000000E+00  0.00000000E+00
  0.00000000E+00  0.00000000E+00  0.00000000E+00
  0.00000000E+00  0.00000000E+00  0.00000000E+00
  0.00000000E+00  0.00000000E+00  0.00000000E+00
  0.00000000E+00  0.00000000E+00  0.00000000E+00
  0.00000000E+00  0.00000000E+00  0.00000000E+00
  0.00000000E+00  0.00000000E+00  0.00000000E+00
  0.00000000E+00  0.00000000E+00  0.00000000E+00
  0.00000000E+00  0.00000000E+00  0.00000000E+00
  0.00000000E+00  0.00000000E+00  0.00000000E+00
  0.00000000E+00  0.00000000E+00  0.00000000E+00
  0.00000000E+00  0.00000000E+00  0.00000000E+00
  0.00000000E+00  0.00000000E+00  0.00000000E+00
  0.00000000E+00  0.00000000E+00  0.00000000E+00
  0.00000000E+00  0.00000000E+00  0.00000000E+00
  0.00000000E+00  0.00000000E+00  0.00000000E+00
  0.00000000E+00  0.00000000E+00  0.00000000E+00
  0.00000000E+00  0.00000000E+00  0.00000000E+00
  0.00000000E+00  0.00000000E+00  0.00000000E+00
  0.00000000E+00  0.00000000E+00  0.00000000E+00
  0.00000000E+00  0.00000000E+00  0.00000000E+00
  0.00000000E+00  0.00000000E+00  0.00000000E+00
  0.00000000E+00  0.00000000E+00  0.00000000E+00
  0.00000000E+00  0.00000000E+00  0.00000000E+00
  0.00000000E+00  0.00000000E+00  0.00000000E+00
  0.00000000E+00  0.00000000E+00  0.00000000E+00
  0.00000000E+00  0.00000000E+00  0.00000000E+00
  0.00000000E+00  0.00000000E+00  0.00000000E+00
  0.00000000E+00  0.00000000E+00  0.00000000E+00
  0.00000000E+00  0.00000000E+00  0.00000000E+00
  0.00000000E+00  0.00000000E+00  0.00000000E+00
