TiZrHfNbTa                              
   1.00000000000000     
     8.9817404821884157    0.0030024207642959   -0.0013183020608991
     0.0029908638168143    9.0408420870149211    0.0006112432782680
    -0.0013254362676833    0.0006391465365507    8.9839826239533540
   Ti   Nb   Hf   N    C    Zr   Ta
     7     6     6    13    19     7     6
Direct
  0.0002019782357650  0.9977639767776196  0.0119997857193752
  0.2433509663914037  0.9964592425642493  0.2512203460873224
  0.2563644985637126  0.5053761295864874  0.2486031272025073
  0.4993704154116827  0.5001546138179478  0.9993736104350361
  0.4906849917482816  0.2587887317996902  0.7544352241966763
  0.0037941731901014  0.4996217321658705  0.4976047382886435
  0.4989380078229786  0.7398361395272346  0.7497741453391029
  0.9990306157157320  0.2386030875566263  0.2598975445998377
  0.7543227529581742  0.7443471956710184  0.9969307327851951
  0.0048534018868267  0.2640959288244744  0.7384463157944197
  0.7593187464451177  0.2643146031325472  0.5015645850429209
  0.9990057028246042  0.7366790958743792  0.7490973731142105
  0.2539493405139552  0.4994668806713705  0.7522800856936058
  0.2467494097567950  0.2519501399866613  0.0020880971340489
  0.4979277616363902  0.2527547673282058  0.2474915052866038
  0.7544186606698986  0.9973959500705476  0.2501381246337999
  0.7511298171231147  0.2542845867247010  0.9956396732483626
  0.2487460192529056  0.7484353872229690  0.9997776364504674
  0.2477714720774529  0.2531817298513701  0.4976861467684870
  0.2502047035291923  0.2494937601257448  0.2494569056462552
  0.2434015000517604  0.0012056294962832  0.0063659970512262
  0.9998761727177410  0.2420157690619078  0.0001733514728812
  0.7492036512922340  0.2511552295006823  0.2493489975816132
  0.7563366438735812  0.0035394324119480  0.0018043122622160
  0.5012815562698236  0.0048995606037607  0.2496910638263188
  0.9972197773314022  0.4997081344924794  0.2563604300490780
  0.4987073491327507  0.7466852712389382  0.9946725463510475
  0.9972394869109351  0.0026976285928484  0.7486141750215509
  0.7468131215567198  0.2524600849269802  0.7493511917989863
  0.7551215862322849  0.0014384871065189  0.4981659997667052
  0.5016485186235329  0.2527605788147369  0.5015035038651590
  0.5025441393206975  0.0021966526111328  0.7501007211352899
  0.0027801985120206  0.9975836786509547  0.2481407934577717
  0.4994108789991714  0.2528131547424763  0.9969496599790091
  0.2456249215154642  0.7490261491798762  0.2477270233229660
  0.2541324505194069  0.4994456952602562  0.0049150296728939
  0.9986610570650569  0.7557369436226438  0.0011847895976658
  0.7533425610831017  0.7466136956045375  0.2511630562875311
  0.7455834753129125  0.5004452624586833  0.0007232466457197
  0.4997418908295117  0.4983748721124783  0.2502147444993454
  0.2524003815780844  0.2527289189642374  0.7504500911061669
  0.2453087661831361  0.0026917322316393  0.4940793598291862
  0.0011358100021752  0.2526180441836985  0.4995847282995740
  0.2532633708736896  0.7469022160914207  0.7528885028400651
  0.2496233853309278  0.4979540712012138  0.4953322218012275
  0.9958439924629161  0.7494553398950785  0.4985128604714149
  0.9978694189387483  0.5004627484011834  0.7434699829418250
  0.7459739659570417  0.7456988798271880  0.7492626674623750
  0.7539360033339051  0.5005496841422001  0.4993047218175448
  0.5041601529702007  0.7453293634463023  0.5063116295374357
  0.5018692223547134  0.4987600858276977  0.7511076331468303
  0.4990514939173281  0.0011307183349984  0.9969457885804474
  0.0010010939321532  0.5009823741480233  0.0036213387102393
  0.4988755467175920  0.7485674576208083  0.2496197034801071
  0.2448592179346818  0.9998901627055545  0.7497725137551541
  0.4979828405377020  0.9981944902659308  0.5028102014364819
  0.7547327037439331  0.9957910196913673  0.7494763766369061
  0.2483261455112924  0.7462792522390487  0.5009858760017423
  0.0007749624915974  0.7583481090926796  0.2508740063532571
  0.7447760456102657  0.5046666313598749  0.2486891226501911
  0.0037501579281880  0.0006704215185565  0.4907705352943381
  0.4984854826829945  0.5003129215716982  0.5010402570257000
  0.7457392897554413  0.5019619182581181  0.7515386926174585
  0.7514568483471393  0.7362485212116994  0.5028755230924986
 
  0.00000000E+00  0.00000000E+00  0.00000000E+00
  0.00000000E+00  0.00000000E+00  0.00000000E+00
  0.00000000E+00  0.00000000E+00  0.00000000E+00
  0.00000000E+00  0.00000000E+00  0.00000000E+00
  0.00000000E+00  0.00000000E+00  0.00000000E+00
  0.00000000E+00  0.00000000E+00  0.00000000E+00
  0.00000000E+00  0.00000000E+00  0.00000000E+00
  0.00000000E+00  0.00000000E+00  0.00000000E+00
  0.00000000E+00  0.00000000E+00  0.00000000E+00
  0.00000000E+00  0.00000000E+00  0.00000000E+00
  0.00000000E+00  0.00000000E+00  0.00000000E+00
  0.00000000E+00  0.00000000E+00  0.00000000E+00
  0.00000000E+00  0.00000000E+00  0.00000000E+00
  0.00000000E+00  0.00000000E+00  0.00000000E+00
  0.00000000E+00  0.00000000E+00  0.00000000E+00
  0.00000000E+00  0.00000000E+00  0.00000000E+00
  0.00000000E+00  0.00000000E+00  0.00000000E+00
  0.00000000E+00  0.00000000E+00  0.00000000E+00
  0.00000000E+00  0.00000000E+00  0.00000000E+00
  0.00000000E+00  0.00000000E+00  0.00000000E+00
  0.00000000E+00  0.00000000E+00  0.00000000E+00
  0.00000000E+00  0.00000000E+00  0.00000000E+00
  0.00000000E+00  0.00000000E+00  0.00000000E+00
  0.00000000E+00  0.00000000E+00  0.00000000E+00
  0.00000000E+00  0.00000000E+00  0.00000000E+00
  0.00000000E+00  0.00000000E+00  0.00000000E+00
  0.00000000E+00  0.00000000E+00  0.00000000E+00
  0.00000000E+00  0.00000000E+00  0.00000000E+00
  0.00000000E+00  0.00000000E+00  0.00000000E+00
  0.00000000E+00  0.00000000E+00  0.00000000E+00
  0.00000000E+00  0.00000000E+00  0.00000000E+00
  0.00000000E+00  0.00000000E+00  0.00000000E+00
  0.00000000E+00  0.00000000E+00  0.00000000E+00
  0.00000000E+00  0.00000000E+00  0.00000000E+00
  0.00000000E+00  0.00000000E+00  0.00000000E+00
  0.00000000E+00  0.00000000E+00  0.00000000E+00
  0.00000000E+00  0.00000000E+00  0.00000000E+00
  0.00000000E+00  0.00000000E+00  0.00000000E+00
  0.00000000E+00  0.00000000E+00  0.00000000E+00
  0.00000000E+00  0.00000000E+00  0.00000000E+00
  0.00000000E+00  0.00000000E+00  0.00000000E+00
  0.00000000E+00  0.00000000E+00  0.00000000E+00
  0.00000000E+00  0.00000000E+00  0.00000000E+00
  0.00000000E+00  0.00000000E+00  0.00000000E+00
  0.00000000E+00  0.00000000E+00  0.00000000E+00
  0.00000000E+00  0.00000000E+00  0.00000000E+00
  0.00000000E+00  0.00000000E+00  0.00000000E+00
  0.00000000E+00  0.00000000E+00  0.00000000E+00
  0.00000000E+00  0.00000000E+00  0.00000000E+00
  0.00000000E+00  0.00000000E+00  0.00000000E+00
  0.00000000E+00  0.00000000E+00  0.00000000E+00
  0.00000000E+00  0.00000000E+00  0.00000000E+00
  0.00000000E+00  0.00000000E+00  0.00000000E+00
  0.00000000E+00  0.00000000E+00  0.00000000E+00
  0.00000000E+00  0.00000000E+00  0.00000000E+00
  0.00000000E+00  0.00000000E+00  0.00000000E+00
  0.00000000E+00  0.00000000E+00  0.00000000E+00
  0.00000000E+00  0.00000000E+00  0.00000000E+00
  0.00000000E+00  0.00000000E+00  0.00000000E+00
  0.00000000E+00  0.00000000E+00  0.00000000E+00
  0.00000000E+00  0.00000000E+00  0.00000000E+00
  0.00000000E+00  0.00000000E+00  0.00000000E+00
  0.00000000E+00  0.00000000E+00  0.00000000E+00
  0.00000000E+00  0.00000000E+00  0.00000000E+00
