75-TiNbTaCrMo                           
   1.00000000000000     
     8.7066620593994770    0.0064879681399040   -0.0031222648256959
     0.0123230416629202    8.7376675070337413    0.0116513519553003
     0.0281304984684541   -0.0036623370137747    8.7385177266493184
  Nb              Ta              Ti              N               C               Cr              Mo            
     7     6     7    13    19     6     6
Direct
  0.0096773082503209  0.9903579209673737  0.9965726478343575
  0.2546629581305146  0.9926233603302115  0.2484020959361768
  0.2527411471100506  0.5064981228597337  0.2482279719357599
  0.5033184629714209  0.4904955817303457  0.9989216318831009
  0.4979302034686504  0.2419110876845303  0.7533108324809702
  0.9995567261346683  0.4986182049312572  0.5092821315203411
  0.5021537848047719  0.7578938711046322  0.7361697269522807
  0.9982615483874149  0.2424887347002538  0.2499785286599714
  0.7487729778124500  0.7505106426447282  0.0025951465386424
  0.0067070968566391  0.2423655149417975  0.7509261492050592
  0.7481492978894377  0.2446840313601324  0.5057654565186874
  0.0033799520836434  0.7560739214881883  0.7484464370480666
  0.2532606690832045  0.5010270411731679  0.7502291612741685
  0.2537115485925476  0.2490928183347819  0.9978065822212222
  0.5020506685434459  0.2445125445603265  0.2491966245381601
  0.7357706243179375  0.9900965278425966  0.2594819294617748
  0.7467425376387946  0.2448572839420882  0.9955363284631419
  0.2578864571427564  0.7506754186088676  0.0003866897369196
  0.2533202708776767  0.2498063284667234  0.5023582267674230
  0.2512100310150148  0.7507616021954417  0.4967428458718024
  0.2513081341799016  0.2499367240352841  0.2500667716535562
  0.2671942547060058  0.0003681871630858  0.9955257455789071
  0.0010425542932541  0.2509132018986511  0.0021316398451394
  0.7471451165513487  0.2414475175307039  0.2507827368715787
  0.7470660879146921  0.9995809420065752  0.0038960669822843
  0.5041578724282093  0.0070345791449455  0.2434735499559309
  0.9983204626854691  0.4896764951537106  0.2500478399081671
  0.5019339093658746  0.7554993788576463  0.9971581705865533
  0.9897095338628551  0.0012239246225595  0.7438748122476706
  0.7543506099255768  0.2351131801006550  0.7515564887409273
  0.7467259496668730  0.0050880092312697  0.4930151067410509
  0.5002407356976445  0.2458674006393368  0.4937319422119031
  0.4987727095953641  0.9988618746384992  0.7464971695293237
  0.9930396850562713  0.0007123916668455  0.2478331357338331
  0.5016373390135772  0.2461105689151855  0.0041837896891478
  0.2626014109496585  0.7507893752237348  0.2489996191775153
  0.2433479846604997  0.5004887235845092  0.9981526884926265
  0.0056872394161896  0.7430870191852147  0.0025107222887231
  0.7442818969125188  0.7497071910720541  0.2489793288578230
  0.7636043365205584  0.4951729114013731  0.0061476553596479
  0.4966489716692848  0.5001399608970308  0.2479956532006604
  0.2506968994703923  0.2432263853776925  0.7516197255393668
  0.2561407160407187  0.0002565705158658  0.5123021841824346
  0.0028206454470353  0.2485961069332416  0.4999327653250728
  0.2504928953248161  0.7586428101069372  0.7501215278145650
  0.2527015849000160  0.5000480429649973  0.5003551997941595
  0.0023595978713854  0.7537749760533599  0.4983780350598974
  0.9996815718776726  0.5006598958219722  0.7552963015552936
  0.7523919614294943  0.7639038018163142  0.7452175072827911
  0.7481351476530846  0.4938241798773304  0.5027203235198081
  0.4995210953431324  0.7668848159367636  0.4864934171756050
  0.5025973712822124  0.4995553762359796  0.7448131318991147
  0.5132698752268209  0.0224311030362785  0.9851757179926888
  0.9956733069332022  0.5226832242259567  0.9735583779037742
  0.5022632744022081  0.7289185698704982  0.2720926574923009
  0.2243390653700677  0.0019743766221496  0.7735833620975420
  0.4717241399278961  0.9988380806197306  0.5007968967876232
  0.7202647280968949  0.9871713833689857  0.7826285244044680
  0.0042870727463131  0.7670798481377549  0.2532757235505533
  0.7315376065954170  0.5110548347047418  0.2483911160255331
  0.0226401759172555  0.0037819569940615  0.4902577265414720
  0.5004675130222548  0.5143699094002369  0.4909234480191166
  0.7478635025839094  0.5149246263629031  0.7603091239866266
  0.7500495623547944  0.7352287591802040  0.4948595635492151
 
  0.00000000E+00  0.00000000E+00  0.00000000E+00
  0.00000000E+00  0.00000000E+00  0.00000000E+00
  0.00000000E+00  0.00000000E+00  0.00000000E+00
  0.00000000E+00  0.00000000E+00  0.00000000E+00
  0.00000000E+00  0.00000000E+00  0.00000000E+00
  0.00000000E+00  0.00000000E+00  0.00000000E+00
  0.00000000E+00  0.00000000E+00  0.00000000E+00
  0.00000000E+00  0.00000000E+00  0.00000000E+00
  0.00000000E+00  0.00000000E+00  0.00000000E+00
  0.00000000E+00  0.00000000E+00  0.00000000E+00
  0.00000000E+00  0.00000000E+00  0.00000000E+00
  0.00000000E+00  0.00000000E+00  0.00000000E+00
  0.00000000E+00  0.00000000E+00  0.00000000E+00
  0.00000000E+00  0.00000000E+00  0.00000000E+00
  0.00000000E+00  0.00000000E+00  0.00000000E+00
  0.00000000E+00  0.00000000E+00  0.00000000E+00
  0.00000000E+00  0.00000000E+00  0.00000000E+00
  0.00000000E+00  0.00000000E+00  0.00000000E+00
  0.00000000E+00  0.00000000E+00  0.00000000E+00
  0.00000000E+00  0.00000000E+00  0.00000000E+00
  0.00000000E+00  0.00000000E+00  0.00000000E+00
  0.00000000E+00  0.00000000E+00  0.00000000E+00
  0.00000000E+00  0.00000000E+00  0.00000000E+00
  0.00000000E+00  0.00000000E+00  0.00000000E+00
  0.00000000E+00  0.00000000E+00  0.00000000E+00
  0.00000000E+00  0.00000000E+00  0.00000000E+00
  0.00000000E+00  0.00000000E+00  0.00000000E+00
  0.00000000E+00  0.00000000E+00  0.00000000E+00
  0.00000000E+00  0.00000000E+00  0.00000000E+00
  0.00000000E+00  0.00000000E+00  0.00000000E+00
  0.00000000E+00  0.00000000E+00  0.00000000E+00
  0.00000000E+00  0.00000000E+00  0.00000000E+00
  0.00000000E+00  0.00000000E+00  0.00000000E+00
  0.00000000E+00  0.00000000E+00  0.00000000E+00
  0.00000000E+00  0.00000000E+00  0.00000000E+00
  0.00000000E+00  0.00000000E+00  0.00000000E+00
  0.00000000E+00  0.00000000E+00  0.00000000E+00
  0.00000000E+00  0.00000000E+00  0.00000000E+00
  0.00000000E+00  0.00000000E+00  0.00000000E+00
  0.00000000E+00  0.00000000E+00  0.00000000E+00
  0.00000000E+00  0.00000000E+00  0.00000000E+00
  0.00000000E+00  0.00000000E+00  0.00000000E+00
  0.00000000E+00  0.00000000E+00  0.00000000E+00
  0.00000000E+00  0.00000000E+00  0.00000000E+00
  0.00000000E+00  0.00000000E+00  0.00000000E+00
  0.00000000E+00  0.00000000E+00  0.00000000E+00
  0.00000000E+00  0.00000000E+00  0.00000000E+00
  0.00000000E+00  0.00000000E+00  0.00000000E+00
  0.00000000E+00  0.00000000E+00  0.00000000E+00
  0.00000000E+00  0.00000000E+00  0.00000000E+00
  0.00000000E+00  0.00000000E+00  0.00000000E+00
  0.00000000E+00  0.00000000E+00  0.00000000E+00
  0.00000000E+00  0.00000000E+00  0.00000000E+00
  0.00000000E+00  0.00000000E+00  0.00000000E+00
  0.00000000E+00  0.00000000E+00  0.00000000E+00
  0.00000000E+00  0.00000000E+00  0.00000000E+00
  0.00000000E+00  0.00000000E+00  0.00000000E+00
  0.00000000E+00  0.00000000E+00  0.00000000E+00
  0.00000000E+00  0.00000000E+00  0.00000000E+00
  0.00000000E+00  0.00000000E+00  0.00000000E+00
  0.00000000E+00  0.00000000E+00  0.00000000E+00
  0.00000000E+00  0.00000000E+00  0.00000000E+00
  0.00000000E+00  0.00000000E+00  0.00000000E+00
  0.00000000E+00  0.00000000E+00  0.00000000E+00
