96-VNbTaCrW                             
   1.00000000000000     
     8.6568314666543458   -0.0091890423233686   -0.0007718441529495
    -0.0030234749637551    8.6397671230063544   -0.0139390745231993
     0.0303453077895036   -0.0292376674913845    8.7039704316009701
   Nb   Ta   V    N    C    Cr   W 
     7     6     7    13    19     6     6
Direct
  0.0134831498921250  0.9981856843544393  0.9961691183473812
  0.2610792582933849  0.0017095828668769  0.2440908995404049
  0.2582874452623038  0.4981971292315032  0.2496951121483353
  0.4987112178284036  0.4927117628269494  0.0028496297519151
  0.5004429736392934  0.2410238558537359  0.7546331166370543
 -0.0002598297350780  0.4991055561189539  0.5097634295121812
  0.4975894907244500  0.7611580177605289  0.7470976152496288
  0.9920636640144248  0.2467631429953085  0.2450059982234140
  0.7509824825486571  0.7519939267281127  0.0044127040760197
  0.0054905527030557  0.2452853630425728  0.7520900653188953
  0.7497705727891082  0.2465189980001905  0.4993286055562305
  0.0052729330057261  0.7555505365809433  0.7500550420897889
  0.2526467391847516  0.5007234847193707  0.7499729540188971
  0.2614428303298151  0.2470575048941264  0.9846132283406731
  0.5171273514653464  0.2665389020368148  0.2534447458870361
  0.7354088046492687  0.9819701699158069  0.2719463804415753
  0.7320279650487292  0.2331701420268700 -0.0089163671701605
  0.2407726096522446  0.7399533628845169  0.0065937080225753
  0.2479817898114211  0.2559243827114928  0.5103680236692346
  0.2533755834358515  0.7423653829943954  0.4944051520895872
  0.2502647032685282  0.2492235871856911  0.2461475229544586
  0.2694439769465045  0.9970808718587587  0.9978781313248100
 -0.0009269114950522  0.2539277737274644 -0.0002498234859145
  0.7455456199226516  0.2383923611636617  0.2449307798729684
  0.7487193445979103  0.0005941614693895  0.0067563850169848
  0.5080402460061877  0.0067520144538131  0.2503912612208053
 -0.0012956161592282  0.4995768257762677  0.2506116682973507
  0.4997735330344669  0.7570495797716185 -0.0015370094866725
  0.9940235511473047  0.0017350407323530  0.7410400684188131
  0.7539224026109010  0.2378682514918188  0.7503720466842192
  0.7504653334898785 -0.0004626531978670  0.4992584802018645
  0.4968074648276410  0.2392522992887108  0.4922207851583051
  0.4953707247780645  0.0020297538609124  0.7408513209687306
  0.9932429189568520  0.0022906153563732  0.2452317764509310
  0.4971987042227742  0.2401007855536875  0.0095424959996782
  0.2605323446268836  0.7506581078314800  0.2472056940320784
  0.2421864263301757  0.4961102332904941  0.9989876262393063
  0.0045420504568397  0.7444577073133656  0.0038243468769085
  0.7433936262070412  0.7482128177044751  0.2514958321387829
  0.7620683168933946  0.4881864881247970  0.0053123736044275
  0.4991480143373903  0.5178923363790179  0.2474259221723631
  0.2521218542244414  0.2411225902352982  0.7472836644888543
  0.2556878070586989  0.0002980169485232  0.5073682554603133
  0.0049327292310063  0.2486582258258800  0.4976974187744047
  0.2502422754334161  0.7593684756217267  0.7504196746312702
  0.2528990829090480  0.4988066657034589  0.4997875330617798
  0.0035258273018089  0.7541755448828693  0.4975167730334739
  0.9992636657952290  0.5012076259570243  0.7531203617142509
  0.7513611641824987  0.7608538717328832  0.7482499337383827
  0.7480979150051580  0.4955566597515182  0.5036185971335905
  0.4963402599270573  0.7549549581355014  0.4962493264368715
  0.5024481081899071  0.5006685282636619  0.7456407498263078
  0.5167341806279355  0.0112605569004495  0.9775519191253089
  0.0049051385713164  0.5171925401464249  0.9733272625532028
  0.4924808743872318  0.7803539204371400  0.2791828675908097
  0.2300933231484807  0.0047026458131642  0.7789725407360857
  0.4703441579340414 -0.0113645077802963  0.4827699338599525
  0.7209746876878774  0.9911559166449755  0.7811839618375794
  0.0098636861210160  0.7657703301839249  0.2509478245026991
  0.7341270438743784  0.4995172850537288  0.2455850565149895
  0.0227828138720864  0.0030857630835641  0.4874619866132938
  0.4993790172300979  0.4958191724940122  0.4901305688738277
  0.7478636616702283  0.5091900131315134  0.7640300854876845
  0.7473667420666309  0.7408091041532636  0.4965869935932192
 
  0.00000000E+00  0.00000000E+00  0.00000000E+00
  0.00000000E+00  0.00000000E+00  0.00000000E+00
  0.00000000E+00  0.00000000E+00  0.00000000E+00
  0.00000000E+00  0.00000000E+00  0.00000000E+00
  0.00000000E+00  0.00000000E+00  0.00000000E+00
  0.00000000E+00  0.00000000E+00  0.00000000E+00
  0.00000000E+00  0.00000000E+00  0.00000000E+00
  0.00000000E+00  0.00000000E+00  0.00000000E+00
  0.00000000E+00  0.00000000E+00  0.00000000E+00
  0.00000000E+00  0.00000000E+00  0.00000000E+00
  0.00000000E+00  0.00000000E+00  0.00000000E+00
  0.00000000E+00  0.00000000E+00  0.00000000E+00
  0.00000000E+00  0.00000000E+00  0.00000000E+00
  0.00000000E+00  0.00000000E+00  0.00000000E+00
  0.00000000E+00  0.00000000E+00  0.00000000E+00
  0.00000000E+00  0.00000000E+00  0.00000000E+00
  0.00000000E+00  0.00000000E+00  0.00000000E+00
  0.00000000E+00  0.00000000E+00  0.00000000E+00
  0.00000000E+00  0.00000000E+00  0.00000000E+00
  0.00000000E+00  0.00000000E+00  0.00000000E+00
  0.00000000E+00  0.00000000E+00  0.00000000E+00
  0.00000000E+00  0.00000000E+00  0.00000000E+00
  0.00000000E+00  0.00000000E+00  0.00000000E+00
  0.00000000E+00  0.00000000E+00  0.00000000E+00
  0.00000000E+00  0.00000000E+00  0.00000000E+00
  0.00000000E+00  0.00000000E+00  0.00000000E+00
  0.00000000E+00  0.00000000E+00  0.00000000E+00
  0.00000000E+00  0.00000000E+00  0.00000000E+00
  0.00000000E+00  0.00000000E+00  0.00000000E+00
  0.00000000E+00  0.00000000E+00  0.00000000E+00
  0.00000000E+00  0.00000000E+00  0.00000000E+00
  0.00000000E+00  0.00000000E+00  0.00000000E+00
  0.00000000E+00  0.00000000E+00  0.00000000E+00
  0.00000000E+00  0.00000000E+00  0.00000000E+00
  0.00000000E+00  0.00000000E+00  0.00000000E+00
  0.00000000E+00  0.00000000E+00  0.00000000E+00
  0.00000000E+00  0.00000000E+00  0.00000000E+00
  0.00000000E+00  0.00000000E+00  0.00000000E+00
  0.00000000E+00  0.00000000E+00  0.00000000E+00
  0.00000000E+00  0.00000000E+00  0.00000000E+00
  0.00000000E+00  0.00000000E+00  0.00000000E+00
  0.00000000E+00  0.00000000E+00  0.00000000E+00
  0.00000000E+00  0.00000000E+00  0.00000000E+00
  0.00000000E+00  0.00000000E+00  0.00000000E+00
  0.00000000E+00  0.00000000E+00  0.00000000E+00
  0.00000000E+00  0.00000000E+00  0.00000000E+00
  0.00000000E+00  0.00000000E+00  0.00000000E+00
  0.00000000E+00  0.00000000E+00  0.00000000E+00
  0.00000000E+00  0.00000000E+00  0.00000000E+00
  0.00000000E+00  0.00000000E+00  0.00000000E+00
  0.00000000E+00  0.00000000E+00  0.00000000E+00
  0.00000000E+00  0.00000000E+00  0.00000000E+00
  0.00000000E+00  0.00000000E+00  0.00000000E+00
  0.00000000E+00  0.00000000E+00  0.00000000E+00
  0.00000000E+00  0.00000000E+00  0.00000000E+00
  0.00000000E+00  0.00000000E+00  0.00000000E+00
  0.00000000E+00  0.00000000E+00  0.00000000E+00
  0.00000000E+00  0.00000000E+00  0.00000000E+00
  0.00000000E+00  0.00000000E+00  0.00000000E+00
  0.00000000E+00  0.00000000E+00  0.00000000E+00
  0.00000000E+00  0.00000000E+00  0.00000000E+00
  0.00000000E+00  0.00000000E+00  0.00000000E+00
  0.00000000E+00  0.00000000E+00  0.00000000E+00
  0.00000000E+00  0.00000000E+00  0.00000000E+00
