15-TiZrVTaW                             
   1.00000000000000     
     8.8660803659883900   -0.0143774269804809    0.0136838391010954
    -0.0144325463185460    8.8115138531889983   -0.0023390133801294
     0.0135923583820721   -0.0023543512700068    8.8053038840016775
   Ti   W    V    N    C    Zr   Ta
     7     6     6    13    19     7     6
Direct
  0.0011624959119969  0.0091471891372053  0.0102104893660293
  0.2419231748239345  0.0138706131285026  0.2457681943860766
  0.2583098995199661  0.4886955850167695  0.2496531613472097
  0.4990299814235322  0.4987067298228666  0.0018380166678988
  0.4928488470822763  0.2533326411513819  0.7585030958934464
  0.0047839246332537  0.4970081092776332  0.4969437827208698
  0.5033636535948430  0.7464639627063575  0.7526798787022501
 -0.0132469105254874  0.2360690569927319  0.2575483737622316
  0.7684873577437165  0.7418408895487403 -0.0025319652223941
  0.0151234959600286  0.2683035727726829  0.7439090568066641
  0.7676917724731313  0.2636235986984713  0.4851983811665063
  0.9950911703032278  0.7273011427580136  0.7505196748916713
  0.2618672996530836  0.4958545059577303  0.7529614985064683
  0.2718966478931214  0.2632589521130664  0.9925384810413339
  0.4922344554122591  0.2570719618928493  0.2351748503922591
  0.7683174526395432  0.9979115095190528  0.2334682644361147
  0.7240415324173876  0.2567050426481357  0.0218102461312516
  0.2279427720575918  0.7293045417786682  0.0014484678609511
  0.2353513146579600  0.2520786895496746  0.5233341718567421
  0.2436828938969423  0.2505238807370343  0.2432684029099082
  0.2445739420354979  0.0106034005899634  0.0078085199354762
  0.9945652109955737  0.2397554267968558 -0.0010203327032720
  0.7382514544798827  0.2405973512622895  0.2472429093530821
  0.7569433099607978  0.0049270229969662  0.0074743852239170
  0.4993997093698490  0.0108285522187364  0.2481660366205095
  0.9977588041623170  0.4934577854623585  0.2563731017608434
  0.5043796706283131  0.7462011061434497  0.9910023980052896
 -0.0000418893581311  0.0063128946655456  0.7509242262133178
  0.7539458812163288  0.2532280716415241  0.7398564600021766
  0.7563486690330498  0.0030707212422987  0.4955613514111960
  0.5066733894009761  0.2561042370150104  0.5014108752216704
  0.5026084048932465  0.0030211912592578  0.7506476307597187
  0.0019271328037593 -0.0012979206425027  0.2458063123713142
  0.4977035951847184  0.2585590948694405 -0.0000884123973291
  0.2443187027292688  0.7481251545859754  0.2376438841475421
  0.2557805037212056  0.4989239770252710  0.0021627090831828
  0.0051387849999950  0.7529496543417482 -0.0017887726058161
  0.7536971545540151  0.7521325574779210  0.2479944747452237
  0.7426027008887451  0.4949276294706302  0.0005068972471548
  0.4962380838738036  0.4922430070929242  0.2468388315179235
  0.2538489199073271  0.2522215940486203  0.7568295091856669
  0.2464226322188143  0.0123153488606507  0.4952242411121396
  0.0092195647379984  0.2545955765889438  0.4999941423764152
  0.2504401466572682  0.7424753902046026  0.7623513267477812
  0.2490148205943617  0.4879978170897123  0.4998196750845343
  0.9960978645906049  0.7501304337688307  0.5015259834729536
  0.0020081798837629  0.4987746362988713  0.7437390754605659
  0.7482313747724000  0.7482245334012252  0.7525187823951470
  0.7538752592213634  0.4987197032363557  0.4993066244481103
  0.5045502968976892  0.7472795777467168  0.5049984020383484
  0.4993019836498422  0.4987451762161894  0.7527645813885229
  0.4962067932623795  0.0033439863474166  0.0046772319205530
  0.9996757955597491  0.4899629953627301  0.0041328018747832
  0.4968309054003351  0.7491556450768093  0.2433687635991628
  0.2458331805578987 -0.0016373590202809  0.7570652517271084
  0.5015860186268717  0.0106268864657720  0.4932891380815242
  0.7551842786555809  0.0044790738848978  0.7592574638830364
  0.2498652129510147  0.7483645859273952  0.4995644041522215
  0.0020909981538669  0.7581192712521000  0.2496675593805104
  0.7402886134979351  0.4978654724226261  0.2499614614856386
  0.0017817804001613  0.0051846193315290  0.4896830719449571
  0.4962674681403761  0.4930623227730749  0.4974294139509978
  0.7398264177145883  0.4981042216691488  0.7510984719910537
  0.7488357188023799  0.7401460723228707  0.5029652847617202
 
  0.00000000E+00  0.00000000E+00  0.00000000E+00
  0.00000000E+00  0.00000000E+00  0.00000000E+00
  0.00000000E+00  0.00000000E+00  0.00000000E+00
  0.00000000E+00  0.00000000E+00  0.00000000E+00
  0.00000000E+00  0.00000000E+00  0.00000000E+00
  0.00000000E+00  0.00000000E+00  0.00000000E+00
  0.00000000E+00  0.00000000E+00  0.00000000E+00
  0.00000000E+00  0.00000000E+00  0.00000000E+00
  0.00000000E+00  0.00000000E+00  0.00000000E+00
  0.00000000E+00  0.00000000E+00  0.00000000E+00
  0.00000000E+00  0.00000000E+00  0.00000000E+00
  0.00000000E+00  0.00000000E+00  0.00000000E+00
  0.00000000E+00  0.00000000E+00  0.00000000E+00
  0.00000000E+00  0.00000000E+00  0.00000000E+00
  0.00000000E+00  0.00000000E+00  0.00000000E+00
  0.00000000E+00  0.00000000E+00  0.00000000E+00
  0.00000000E+00  0.00000000E+00  0.00000000E+00
  0.00000000E+00  0.00000000E+00  0.00000000E+00
  0.00000000E+00  0.00000000E+00  0.00000000E+00
  0.00000000E+00  0.00000000E+00  0.00000000E+00
  0.00000000E+00  0.00000000E+00  0.00000000E+00
  0.00000000E+00  0.00000000E+00  0.00000000E+00
  0.00000000E+00  0.00000000E+00  0.00000000E+00
  0.00000000E+00  0.00000000E+00  0.00000000E+00
  0.00000000E+00  0.00000000E+00  0.00000000E+00
  0.00000000E+00  0.00000000E+00  0.00000000E+00
  0.00000000E+00  0.00000000E+00  0.00000000E+00
  0.00000000E+00  0.00000000E+00  0.00000000E+00
  0.00000000E+00  0.00000000E+00  0.00000000E+00
  0.00000000E+00  0.00000000E+00  0.00000000E+00
  0.00000000E+00  0.00000000E+00  0.00000000E+00
  0.00000000E+00  0.00000000E+00  0.00000000E+00
  0.00000000E+00  0.00000000E+00  0.00000000E+00
  0.00000000E+00  0.00000000E+00  0.00000000E+00
  0.00000000E+00  0.00000000E+00  0.00000000E+00
  0.00000000E+00  0.00000000E+00  0.00000000E+00
  0.00000000E+00  0.00000000E+00  0.00000000E+00
  0.00000000E+00  0.00000000E+00  0.00000000E+00
  0.00000000E+00  0.00000000E+00  0.00000000E+00
  0.00000000E+00  0.00000000E+00  0.00000000E+00
  0.00000000E+00  0.00000000E+00  0.00000000E+00
  0.00000000E+00  0.00000000E+00  0.00000000E+00
  0.00000000E+00  0.00000000E+00  0.00000000E+00
  0.00000000E+00  0.00000000E+00  0.00000000E+00
  0.00000000E+00  0.00000000E+00  0.00000000E+00
  0.00000000E+00  0.00000000E+00  0.00000000E+00
  0.00000000E+00  0.00000000E+00  0.00000000E+00
  0.00000000E+00  0.00000000E+00  0.00000000E+00
  0.00000000E+00  0.00000000E+00  0.00000000E+00
  0.00000000E+00  0.00000000E+00  0.00000000E+00
  0.00000000E+00  0.00000000E+00  0.00000000E+00
  0.00000000E+00  0.00000000E+00  0.00000000E+00
  0.00000000E+00  0.00000000E+00  0.00000000E+00
  0.00000000E+00  0.00000000E+00  0.00000000E+00
  0.00000000E+00  0.00000000E+00  0.00000000E+00
  0.00000000E+00  0.00000000E+00  0.00000000E+00
  0.00000000E+00  0.00000000E+00  0.00000000E+00
  0.00000000E+00  0.00000000E+00  0.00000000E+00
  0.00000000E+00  0.00000000E+00  0.00000000E+00
  0.00000000E+00  0.00000000E+00  0.00000000E+00
  0.00000000E+00  0.00000000E+00  0.00000000E+00
  0.00000000E+00  0.00000000E+00  0.00000000E+00
  0.00000000E+00  0.00000000E+00  0.00000000E+00
  0.00000000E+00  0.00000000E+00  0.00000000E+00
