56-VNbTaMoW                             
   1.00000000000000     
     8.7189340030515883   -0.0018387111306908    0.0186808963494154
     0.0037682604444982    8.7562691435450830    0.0002651432568637
     0.0500361398858658   -0.0148868894017902    8.7588972273650665
   V    Ta   Nb   N    C    W    Mo
     7     6     7    13    19     6     6
Direct
  0.0289292161695432  0.9855309078362070  0.9874516672039825
  0.2404223668391424  0.9770665853867472  0.2582703475610940
  0.2687260839424798  0.5125463690866002  0.2514314730185169
  0.5018521986456965  0.4787204976577865  0.9915709030063373
  0.4979312834085213  0.2594140989226620  0.7635551724161829
  0.0048262638728931  0.4998970888721391  0.5264281126904015
  0.5044628753715321  0.7302391654238995  0.7304007222857123
  0.0056795362987614  0.2526803985901429  0.2549686019843476
  0.7454873008374454  0.7485774217689256  0.0029648412480923
  0.0079310083319004  0.2448399150685656  0.7472241836171437
  0.7552926217079327  0.2617911612640664  0.5026162201924723
  0.0000240168712529  0.7560303599664502  0.7493163638854349
  0.2560587579683518  0.4988285973426064  0.7510058788404186
  0.2529521845675095  0.2502818329355774  0.9943250675212083
  0.4955399758120237  0.2386439873222374  0.2546727575066002
  0.7478266233697801  0.9957656287743382  0.2622413351908779
  0.7441223888583620  0.2448606584799723  0.9920850714590018
  0.2502202788645139  0.7472189015128384  0.0038993632289163
  0.2477357751602878  0.2493849524150483  0.5018159959677431
  0.2485236618119248  0.7481013308315184  0.5006877623008495
  0.2480583919539533  0.2534354058644118  0.2480439170642017
  0.2613772983151466  0.0002874143091371  0.0105891054131532
  0.9977140481674817  0.2443830501339960 -0.0002520456047694
  0.7526714640816601  0.2498494899658856  0.2511160443356971
  0.7584130769366345  0.9950896812219139  0.0117746991221857
  0.4838260171044391  0.9869717164014437  0.2277660247843115
  0.0035061920340097  0.4914748011569824  0.2385961407529222
  0.5028572796678279  0.7600070539002617  0.0008611211726962
  0.9773047545913253  0.0022163950106928  0.7505008952057214
  0.7491505812885414  0.2460965507878770  0.7461732131831567
  0.7428751550050154  0.0064534819437420  0.5141738352881295
  0.5069043258405793  0.2538086319089845  0.5144787754043595
  0.4876112855549163  0.0071201525081053  0.7374164790716854
  0.0022337013939833  0.0052643915634952  0.2360380163207000
  0.4982707950027310  0.2552394335260800  0.0018202604285884
  0.2513872878443805  0.7459072094353835  0.2519199619389639
  0.2555908823657292  0.4993792361532217  0.0062366693932817
  0.9985842729570056  0.7526163076065034  0.0023026392596941
  0.7504162996753484  0.7452506996685079  0.2504246014453264
  0.7490476251369033  0.4969474723295544  0.0049952342400783
  0.4901922856483383  0.4994304000141930  0.2431231383070835
  0.2599308768155854  0.2494798787083693  0.7486689382831899
  0.2532950813656881  0.9990801719460651  0.5015423533682127
  0.0006763323864536  0.2554545068855062  0.4995502211533813
  0.2594150350310433  0.7527507387849350  0.7524707343394444
  0.2472961177112299  0.4996815717049319  0.4936925065331189
  0.9984065768403626  0.7454129023331685  0.4991425746327430
 -0.0002038330238544  0.5006779967869402  0.7479272857543486
  0.7428389532887714  0.7547586101519652  0.7464105235227635
  0.7616901182127215  0.4979784651069369  0.5000100218608086
  0.5049923823242115  0.7642096111284697  0.5077068179140686
  0.5017645304569467  0.4985262043269070  0.7524506852268171
  0.5114491172138544  0.0163971347453231  0.9797101036054949
  0.0018014634967549  0.5113143991201418  0.9841735794940371
  0.5002036627187935  0.7453439418151230  0.2683097016557778
  0.2311753189837518  0.0027229477712060  0.7571970050647580
  0.4929529559226765  0.0121649494878998  0.4720375669569059
  0.7250947407923914  0.9901956034361488  0.7693698865827683
  0.0018846429519012  0.7692211946933518  0.2551034312595049
  0.7222683730999122  0.5043413605458542  0.2526285138390297
  0.0120196924388694  0.0007502868047693  0.4835073448012053
  0.5012700460120680  0.5122381646810584  0.4991926239736090
  0.7424343325851367  0.5135373054651994  0.7588098905409678
  0.7548064190989079  0.7261129697010084  0.4953572579845968
 
  0.00000000E+00  0.00000000E+00  0.00000000E+00
  0.00000000E+00  0.00000000E+00  0.00000000E+00
  0.00000000E+00  0.00000000E+00  0.00000000E+00
  0.00000000E+00  0.00000000E+00  0.00000000E+00
  0.00000000E+00  0.00000000E+00  0.00000000E+00
  0.00000000E+00  0.00000000E+00  0.00000000E+00
  0.00000000E+00  0.00000000E+00  0.00000000E+00
  0.00000000E+00  0.00000000E+00  0.00000000E+00
  0.00000000E+00  0.00000000E+00  0.00000000E+00
  0.00000000E+00  0.00000000E+00  0.00000000E+00
  0.00000000E+00  0.00000000E+00  0.00000000E+00
  0.00000000E+00  0.00000000E+00  0.00000000E+00
  0.00000000E+00  0.00000000E+00  0.00000000E+00
  0.00000000E+00  0.00000000E+00  0.00000000E+00
  0.00000000E+00  0.00000000E+00  0.00000000E+00
  0.00000000E+00  0.00000000E+00  0.00000000E+00
  0.00000000E+00  0.00000000E+00  0.00000000E+00
  0.00000000E+00  0.00000000E+00  0.00000000E+00
  0.00000000E+00  0.00000000E+00  0.00000000E+00
  0.00000000E+00  0.00000000E+00  0.00000000E+00
  0.00000000E+00  0.00000000E+00  0.00000000E+00
  0.00000000E+00  0.00000000E+00  0.00000000E+00
  0.00000000E+00  0.00000000E+00  0.00000000E+00
  0.00000000E+00  0.00000000E+00  0.00000000E+00
  0.00000000E+00  0.00000000E+00  0.00000000E+00
  0.00000000E+00  0.00000000E+00  0.00000000E+00
  0.00000000E+00  0.00000000E+00  0.00000000E+00
  0.00000000E+00  0.00000000E+00  0.00000000E+00
  0.00000000E+00  0.00000000E+00  0.00000000E+00
  0.00000000E+00  0.00000000E+00  0.00000000E+00
  0.00000000E+00  0.00000000E+00  0.00000000E+00
  0.00000000E+00  0.00000000E+00  0.00000000E+00
  0.00000000E+00  0.00000000E+00  0.00000000E+00
  0.00000000E+00  0.00000000E+00  0.00000000E+00
  0.00000000E+00  0.00000000E+00  0.00000000E+00
  0.00000000E+00  0.00000000E+00  0.00000000E+00
  0.00000000E+00  0.00000000E+00  0.00000000E+00
  0.00000000E+00  0.00000000E+00  0.00000000E+00
  0.00000000E+00  0.00000000E+00  0.00000000E+00
  0.00000000E+00  0.00000000E+00  0.00000000E+00
  0.00000000E+00  0.00000000E+00  0.00000000E+00
  0.00000000E+00  0.00000000E+00  0.00000000E+00
  0.00000000E+00  0.00000000E+00  0.00000000E+00
  0.00000000E+00  0.00000000E+00  0.00000000E+00
  0.00000000E+00  0.00000000E+00  0.00000000E+00
  0.00000000E+00  0.00000000E+00  0.00000000E+00
  0.00000000E+00  0.00000000E+00  0.00000000E+00
  0.00000000E+00  0.00000000E+00  0.00000000E+00
  0.00000000E+00  0.00000000E+00  0.00000000E+00
  0.00000000E+00  0.00000000E+00  0.00000000E+00
  0.00000000E+00  0.00000000E+00  0.00000000E+00
  0.00000000E+00  0.00000000E+00  0.00000000E+00
  0.00000000E+00  0.00000000E+00  0.00000000E+00
  0.00000000E+00  0.00000000E+00  0.00000000E+00
  0.00000000E+00  0.00000000E+00  0.00000000E+00
  0.00000000E+00  0.00000000E+00  0.00000000E+00
  0.00000000E+00  0.00000000E+00  0.00000000E+00
  0.00000000E+00  0.00000000E+00  0.00000000E+00
  0.00000000E+00  0.00000000E+00  0.00000000E+00
  0.00000000E+00  0.00000000E+00  0.00000000E+00
  0.00000000E+00  0.00000000E+00  0.00000000E+00
  0.00000000E+00  0.00000000E+00  0.00000000E+00
  0.00000000E+00  0.00000000E+00  0.00000000E+00
  0.00000000E+00  0.00000000E+00  0.00000000E+00
