56-VNbTaMoW                             
   1.00000000000000     
     8.7300766214165684   -0.0047773989424184    0.0172663369919971
     0.0008484318388466    8.7709118783033002   -0.0115556372766864
     0.0486811310937139   -0.0267731435411593    8.7563226838751032
   V    Ta   Nb   N    C    W    Mo
     7     6     7    13    19     6     6
Direct
  0.0305523747181565  0.9856911744611710 -0.0087912787362591
  0.2427959327990480  0.9771791952162678  0.2581551213831582
  0.2687134003140345  0.5136644972271227  0.2505692667979281
  0.5013429310173155  0.4787144620189741  0.9925228594848649
  0.4931123659250169  0.2580549773542571  0.7598746206003383
  0.0047839499292001  0.4986758312295093  0.5260255126440320
  0.5028242806323806  0.7247389879729008  0.7347817729667642
  0.0054302146769447  0.2536069655177704  0.2551749270124673
  0.7443111805121633  0.7489121025732844  0.0023097487502578
  0.0077179342547231  0.2446936935670214  0.7469242312862344
  0.7548215641003214  0.2628455248175320  0.5028856233266968
 -0.0005951205939416  0.7560707962205929  0.7497713596104725
  0.2546254523370920  0.4984859877002459  0.7511195567008052
  0.2512567413916813  0.2509655055315155  0.9950212885323756
  0.4968580363017012  0.2485640447811711  0.2478579214963941
  0.7483070100070321  0.9941493897409898  0.2620849748147676
  0.7441306161668070  0.2448228885487940  0.9930540487337250
  0.2505283638934079  0.7480553283518966  0.0031194603750621
  0.2473872068521092  0.2492588198713135  0.5014208067609947
  0.2484184409680179  0.7477521035913836  0.5012934057608728
  0.2487064357766217  0.2530946960727728  0.2480375080463235
  0.2636288271513750  0.0007218836548201  0.0094449696814859
 -0.0030604828856605  0.2446213479805029  0.0000820193023723
  0.7532173955161763  0.2483073863805533  0.2514662249501263
  0.7592134092098169  0.9955165297887741  0.0120358382288308
  0.4860768407598094  0.9949032201255833  0.2259775240950063
  0.0046883580873893  0.4911582808927256  0.2385996343932794
  0.5029099298844063  0.7618808726005623  0.0004925770195157
  0.9785065999895510  0.0020807599802048  0.7547120206338012
  0.7487183891988465  0.2473990916667881  0.7459362902110441
  0.7444980792731209  0.0063620430980778  0.5133807003721079
  0.5065469803000741  0.2464422704064339  0.5075883327927628
  0.4884304442645344  0.0058485588109063  0.7370120723964932
  0.0040870558471606  0.0048997391082898  0.2387676118660732
  0.4974024525701278  0.2569901190579698 -0.0040541493073102
  0.2506974953552938  0.7469416083365998  0.2517715815740566
  0.2550301796083282  0.5000148404726872  0.0060416200983056
 -0.0017063030738456  0.7532142179492660  0.0026065672583217
  0.7493412674224136  0.7435753376096434  0.2505082610870180
  0.7488982699171691  0.4975780993038545  0.0047587185915010
  0.4892169302572382  0.5069528865270603  0.2438896918546479
  0.2582984714919113  0.2495227188357880  0.7484735323887458
  0.2551581478540388  0.9985713569854919  0.5012577029659516
  0.0001766799809575  0.2548228590772333  0.5001024121711340
  0.2582718428480855  0.7524269522724960  0.7528036195220584
  0.2467264239519333  0.4990333978649796  0.4933242067184037
  0.9990365943944463  0.7448652486359967  0.4995629440936297
  0.9989051440934255  0.5007571979324610  0.7479932686768768
  0.7418160822424349  0.7562968928027470  0.7460355269246710
  0.7611460394191789  0.4976729967472180  0.4995670978007321
  0.5055850988307682  0.7579751852289026  0.5111868235150929
  0.5008240320457159  0.4945783161195605  0.7539198961875579
  0.5131509399603240  0.0189023735196994  0.9794664254443121
  0.0016511007852959  0.5123118405751237  0.9845644501103636
  0.4996730323457019  0.7560101714610773  0.2683368963885476
  0.2319252921144574  0.0034613522175433  0.7572788604104412
  0.4947067435063079  0.9989667606923570  0.4745355993731616
  0.7260609936205706  0.9918595144519430  0.7695556719610397
 -0.0001926854688536  0.7687315344255699  0.2552496859670509
  0.7203417474623681  0.5015502005582494  0.2519463938395129
  0.0143162782357456  0.0008405371490851  0.4851083970970228
  0.5005030049027377  0.5086067764380425  0.5020032302089829
  0.7420686839246691  0.5142724798603278  0.7583827390677654
  0.7574792568246007  0.7245570210303197  0.4951139117192485
 
  0.00000000E+00  0.00000000E+00  0.00000000E+00
  0.00000000E+00  0.00000000E+00  0.00000000E+00
  0.00000000E+00  0.00000000E+00  0.00000000E+00
  0.00000000E+00  0.00000000E+00  0.00000000E+00
  0.00000000E+00  0.00000000E+00  0.00000000E+00
  0.00000000E+00  0.00000000E+00  0.00000000E+00
  0.00000000E+00  0.00000000E+00  0.00000000E+00
  0.00000000E+00  0.00000000E+00  0.00000000E+00
  0.00000000E+00  0.00000000E+00  0.00000000E+00
  0.00000000E+00  0.00000000E+00  0.00000000E+00
  0.00000000E+00  0.00000000E+00  0.00000000E+00
  0.00000000E+00  0.00000000E+00  0.00000000E+00
  0.00000000E+00  0.00000000E+00  0.00000000E+00
  0.00000000E+00  0.00000000E+00  0.00000000E+00
  0.00000000E+00  0.00000000E+00  0.00000000E+00
  0.00000000E+00  0.00000000E+00  0.00000000E+00
  0.00000000E+00  0.00000000E+00  0.00000000E+00
  0.00000000E+00  0.00000000E+00  0.00000000E+00
  0.00000000E+00  0.00000000E+00  0.00000000E+00
  0.00000000E+00  0.00000000E+00  0.00000000E+00
  0.00000000E+00  0.00000000E+00  0.00000000E+00
  0.00000000E+00  0.00000000E+00  0.00000000E+00
  0.00000000E+00  0.00000000E+00  0.00000000E+00
  0.00000000E+00  0.00000000E+00  0.00000000E+00
  0.00000000E+00  0.00000000E+00  0.00000000E+00
  0.00000000E+00  0.00000000E+00  0.00000000E+00
  0.00000000E+00  0.00000000E+00  0.00000000E+00
  0.00000000E+00  0.00000000E+00  0.00000000E+00
  0.00000000E+00  0.00000000E+00  0.00000000E+00
  0.00000000E+00  0.00000000E+00  0.00000000E+00
  0.00000000E+00  0.00000000E+00  0.00000000E+00
  0.00000000E+00  0.00000000E+00  0.00000000E+00
  0.00000000E+00  0.00000000E+00  0.00000000E+00
  0.00000000E+00  0.00000000E+00  0.00000000E+00
  0.00000000E+00  0.00000000E+00  0.00000000E+00
  0.00000000E+00  0.00000000E+00  0.00000000E+00
  0.00000000E+00  0.00000000E+00  0.00000000E+00
  0.00000000E+00  0.00000000E+00  0.00000000E+00
  0.00000000E+00  0.00000000E+00  0.00000000E+00
  0.00000000E+00  0.00000000E+00  0.00000000E+00
  0.00000000E+00  0.00000000E+00  0.00000000E+00
  0.00000000E+00  0.00000000E+00  0.00000000E+00
  0.00000000E+00  0.00000000E+00  0.00000000E+00
  0.00000000E+00  0.00000000E+00  0.00000000E+00
  0.00000000E+00  0.00000000E+00  0.00000000E+00
  0.00000000E+00  0.00000000E+00  0.00000000E+00
  0.00000000E+00  0.00000000E+00  0.00000000E+00
  0.00000000E+00  0.00000000E+00  0.00000000E+00
  0.00000000E+00  0.00000000E+00  0.00000000E+00
  0.00000000E+00  0.00000000E+00  0.00000000E+00
  0.00000000E+00  0.00000000E+00  0.00000000E+00
  0.00000000E+00  0.00000000E+00  0.00000000E+00
  0.00000000E+00  0.00000000E+00  0.00000000E+00
  0.00000000E+00  0.00000000E+00  0.00000000E+00
  0.00000000E+00  0.00000000E+00  0.00000000E+00
  0.00000000E+00  0.00000000E+00  0.00000000E+00
  0.00000000E+00  0.00000000E+00  0.00000000E+00
  0.00000000E+00  0.00000000E+00  0.00000000E+00
  0.00000000E+00  0.00000000E+00  0.00000000E+00
  0.00000000E+00  0.00000000E+00  0.00000000E+00
  0.00000000E+00  0.00000000E+00  0.00000000E+00
  0.00000000E+00  0.00000000E+00  0.00000000E+00
  0.00000000E+00  0.00000000E+00  0.00000000E+00
  0.00000000E+00  0.00000000E+00  0.00000000E+00
