57-TiZrHfCrMo                           
   1.00000000000000     
     8.8326854077071033    0.0226254542782387   -0.0201068410527351
     0.0289323329217817    8.8823489060095788    0.0089880568103301
     0.0115806133372937   -0.0063928542583089    8.8658205704511079
   Zr   Hf   Ti   N    C    Cr   Mo
     7     6     7    13    19     6     6
Direct
 -0.0008330839402065  0.9922293498331175  0.0019682812776446
  0.2637134570108529  0.0002100613002050  0.2435035750127449
  0.2473065844802631  0.4960139333331537  0.2484259341595418
  0.5023291886063934  0.4964390426520382  0.0016667540664640
  0.5063959415612717  0.2468848181192534  0.7465758252204772
  0.9972459589987362  0.5001389153816076  0.5031985133026714
  0.4984534743135475  0.7577672689355385  0.7456995996030193
  0.9956035567799727  0.2500783513268454  0.2434157715335378
  0.7432014211158564  0.7512492022482881  0.0089030400058627
  0.9963586802147465  0.2390761366694742  0.7539283206928380
  0.7467088786519945  0.2348229929713515  0.4993627895986807
 -0.0012880056275911  0.7646034041902454  0.7436041112019030
  0.2518842517004606  0.4996006261829296  0.7496109046532192
  0.2581452996430131  0.2430466395890901  0.9922448454408952
  0.5059417901849171  0.2497635444573074  0.2486703053630374
  0.7375456313155528  0.9852859822830096  0.2593558188736576
  0.7442950298110113  0.2462862711165424  0.0003587657695942
  0.2534682212272297  0.7481156240416146 -0.0031428004021762
  0.2534010403033856  0.2430797844876184  0.5067663925873404
  0.2504861717535044  0.7533342168593268  0.4996631122146655
  0.2543147245792107  0.2475282819432340  0.2478754800691943
  0.2635974921741260 -0.0000995002533380  0.9934103194021907
 -0.0009470035716551  0.2483841749122511  0.9981984739859119
  0.7457262633441001  0.2428798062608754  0.2474896480366478
  0.7390229625061161  0.0030578294863340  0.0032433639598506
  0.5117223812649110  0.0104701535553606  0.2377910575774629
  0.9940402414310313  0.4997971807613090  0.2442650228787125
  0.4947976881863184  0.7589373350469518  0.0082837103053177
 -0.0299551451717503  0.0021756905461261  0.7470250581511862
  0.7531510699095422  0.2413312856771639  0.7535775285833893
  0.7502070710085905  0.9970380665469376  0.4860330000490908
  0.4994367593965953  0.2437514412913420  0.4911309358421318
  0.5063399214004971  0.0013888737572210  0.7268733001084785
  0.9977284750207791  0.9983582248534054  0.2527654202642688
  0.5031153689279217  0.2437067095155798  0.0053400713003235
  0.2572278887721527  0.7481475780448683  0.2499086473054094
  0.2385610797715013  0.5001631568719368  0.9974836589603404
  0.0036452986676422  0.7389505021117533  0.0020040510766939
  0.7419299520309405  0.7498208576734331  0.2554731902649272
  0.7649292562915646  0.4956464410312594  0.0046377533094242
  0.5009802290191844  0.4995380910908863  0.2555357094379937
  0.2519394699661056  0.2407155811434576  0.7501168929238762
  0.2540890551449908 -0.0008252501124664  0.5129871949816704
  0.0039350812743132  0.2444789527637863  0.4989685777648200
  0.2491211981757110  0.7631607085665663  0.7530989454686908
  0.2565250882966080  0.4998256851982448  0.5005647430362290
 -0.0005592390171660  0.7582440245247360  0.4955343354235776
  0.9964587544227653  0.5028654900454075  0.7616692778024973
  0.7485889114945777  0.7601591892541948  0.7479360101069391
  0.7449978057150647  0.4976667862220650  0.5053136823717859
  0.4967474992655803  0.7670538877280573  0.4840025486690994
  0.5055212446216927  0.5025421858996821  0.7444580824385598
  0.5081470766626782  0.0193115493364337  0.0019959875972088
 -0.0014385177810642  0.5192708751640531  0.9787370796668424
  0.4804026755031264  0.7264922923088438  0.2609416619569039
  0.2880557151041025  0.0059113369936835  0.7672916121138742
  0.4704752861994539  0.9912571726322531  0.5110973975484151
  0.7280708861276055  0.9817895340495532  0.7797545307792720
  0.0170414170994849  0.7571166003372670  0.2577198732979084
  0.7376927065326359  0.5109543777770345  0.2607513237002776
  0.0221241921919252  0.0004836230822849  0.4866566802468003
  0.5067276486743901  0.5220812535393055  0.4942260257215658
  0.7514906998258606  0.5215981463269311  0.7546813161072031
  0.7439102574353104  0.7388474015151877  0.4893710952313790
 
  0.00000000E+00  0.00000000E+00  0.00000000E+00
  0.00000000E+00  0.00000000E+00  0.00000000E+00
  0.00000000E+00  0.00000000E+00  0.00000000E+00
  0.00000000E+00  0.00000000E+00  0.00000000E+00
  0.00000000E+00  0.00000000E+00  0.00000000E+00
  0.00000000E+00  0.00000000E+00  0.00000000E+00
  0.00000000E+00  0.00000000E+00  0.00000000E+00
  0.00000000E+00  0.00000000E+00  0.00000000E+00
  0.00000000E+00  0.00000000E+00  0.00000000E+00
  0.00000000E+00  0.00000000E+00  0.00000000E+00
  0.00000000E+00  0.00000000E+00  0.00000000E+00
  0.00000000E+00  0.00000000E+00  0.00000000E+00
  0.00000000E+00  0.00000000E+00  0.00000000E+00
  0.00000000E+00  0.00000000E+00  0.00000000E+00
  0.00000000E+00  0.00000000E+00  0.00000000E+00
  0.00000000E+00  0.00000000E+00  0.00000000E+00
  0.00000000E+00  0.00000000E+00  0.00000000E+00
  0.00000000E+00  0.00000000E+00  0.00000000E+00
  0.00000000E+00  0.00000000E+00  0.00000000E+00
  0.00000000E+00  0.00000000E+00  0.00000000E+00
  0.00000000E+00  0.00000000E+00  0.00000000E+00
  0.00000000E+00  0.00000000E+00  0.00000000E+00
  0.00000000E+00  0.00000000E+00  0.00000000E+00
  0.00000000E+00  0.00000000E+00  0.00000000E+00
  0.00000000E+00  0.00000000E+00  0.00000000E+00
  0.00000000E+00  0.00000000E+00  0.00000000E+00
  0.00000000E+00  0.00000000E+00  0.00000000E+00
  0.00000000E+00  0.00000000E+00  0.00000000E+00
  0.00000000E+00  0.00000000E+00  0.00000000E+00
  0.00000000E+00  0.00000000E+00  0.00000000E+00
  0.00000000E+00  0.00000000E+00  0.00000000E+00
  0.00000000E+00  0.00000000E+00  0.00000000E+00
  0.00000000E+00  0.00000000E+00  0.00000000E+00
  0.00000000E+00  0.00000000E+00  0.00000000E+00
  0.00000000E+00  0.00000000E+00  0.00000000E+00
  0.00000000E+00  0.00000000E+00  0.00000000E+00
  0.00000000E+00  0.00000000E+00  0.00000000E+00
  0.00000000E+00  0.00000000E+00  0.00000000E+00
  0.00000000E+00  0.00000000E+00  0.00000000E+00
  0.00000000E+00  0.00000000E+00  0.00000000E+00
  0.00000000E+00  0.00000000E+00  0.00000000E+00
  0.00000000E+00  0.00000000E+00  0.00000000E+00
  0.00000000E+00  0.00000000E+00  0.00000000E+00
  0.00000000E+00  0.00000000E+00  0.00000000E+00
  0.00000000E+00  0.00000000E+00  0.00000000E+00
  0.00000000E+00  0.00000000E+00  0.00000000E+00
  0.00000000E+00  0.00000000E+00  0.00000000E+00
  0.00000000E+00  0.00000000E+00  0.00000000E+00
  0.00000000E+00  0.00000000E+00  0.00000000E+00
  0.00000000E+00  0.00000000E+00  0.00000000E+00
  0.00000000E+00  0.00000000E+00  0.00000000E+00
  0.00000000E+00  0.00000000E+00  0.00000000E+00
  0.00000000E+00  0.00000000E+00  0.00000000E+00
  0.00000000E+00  0.00000000E+00  0.00000000E+00
  0.00000000E+00  0.00000000E+00  0.00000000E+00
  0.00000000E+00  0.00000000E+00  0.00000000E+00
  0.00000000E+00  0.00000000E+00  0.00000000E+00
  0.00000000E+00  0.00000000E+00  0.00000000E+00
  0.00000000E+00  0.00000000E+00  0.00000000E+00
  0.00000000E+00  0.00000000E+00  0.00000000E+00
  0.00000000E+00  0.00000000E+00  0.00000000E+00
  0.00000000E+00  0.00000000E+00  0.00000000E+00
  0.00000000E+00  0.00000000E+00  0.00000000E+00
  0.00000000E+00  0.00000000E+00  0.00000000E+00
