71-TiVNbCrMo                            
   1.00000000000000     
     8.5371412341014938   -0.0092848720903367    0.0052616117394557
    -0.0035878093453765    8.5508936146067960    0.0157573499418114
     0.0359623274861987    0.0006636894342959    8.6014608796317198
   V    Nb   Ti   N    C    Cr   Mo
     7     6     7    13    19     6     6
Direct
  0.0103409602272635  0.9839658034799426  0.0195666264202089
  0.2390938738869998  0.9850738379542541  0.2481656244731635
  0.2637209048627208  0.5130683132087286  0.2453226077856479
  0.4979130253194496  0.4806809838043652  0.9955477221969314
  0.4849540641620047  0.2405445698434177  0.7564881573656428
  0.0054712475968467  0.4962271110965742  0.5210598000205537
  0.5024812650613253  0.7541441962159556  0.7342267696719066
  0.0007076957344134  0.2599798389718872  0.2508314598341546
  0.7423973790655849  0.7503490089619187  0.0013870720743944
  0.0082239843895363  0.2397993612795587  0.7501518703222946
  0.7490453922991215  0.2507202791017222  0.5081529838325278
  0.0019026919175342  0.7581634063065660  0.7488279733335637
  0.2547769231823596  0.5012117792012590  0.7528949447016120
  0.2490646107130836  0.2451085990125791  0.0015872500736907
  0.4941162035568340  0.2411688696429410  0.2449011568306936
  0.7390818424008315  0.9937976624231177  0.2523482074231135
  0.7493419124113750  0.2475264011095715  0.9948192908278997
  0.2651554493503729  0.7554004853806617  0.9997127189493787
  0.2519047277158228  0.2502890519079751  0.4972843074287990
  0.2509298526395168  0.7511194105223465  0.4971927262383036
  0.2524129294496819  0.2498836451744822  0.2485032142745358
  0.2531729453351315  0.0005252122660508  0.9985196026389682
  0.0008238690400038  0.2438101946676822  0.0015355587366053
  0.7430777456676873  0.2425572044537380  0.2478003750103622
  0.7533294775275047  0.0029214701558950  0.0026799028877824
  0.4975890337977457  0.0015161471500392  0.2324229106936103
  0.0041634718727417  0.4996175626195295  0.2462027041970537
  0.4998819908568052  0.7538828266036138  0.9925959673133671
  0.0043032205334714  0.0008721840404946  0.7560452973033752
  0.7449054727321874  0.2375473800805524  0.7534372534194025
  0.7450367331877268  0.0023266491676995  0.4957770115791045
  0.4969630836397299  0.2445005642160580  0.5000877146268997
  0.5002700603791244  0.9989652571805071  0.7532206999386865
  0.9968594526501241  0.0022294536741084  0.2456805396546073
  0.4992637707310907  0.2498312695272301  0.9963111805171321
  0.2634127517242246  0.7518509678190378  0.2484814418131522
  0.2485817090199763  0.5010820268825674  0.0057822730816482
  0.0075097988804355  0.7494058422715211  0.0009496137850477
  0.7420015393430601  0.7493910763075684  0.2491728304117223
  0.7572180321434973  0.4957831738723239  0.0030597344808337
  0.4898471984937595  0.5017011185729791  0.2413769493581869
  0.2564150482807279  0.2433752381473378  0.7504238968934492
  0.2549608393022532  0.0004939945071324  0.4961819538647870
  0.0045081029363408  0.2562195868361443  0.5006728821829437
  0.2592164465074060  0.7591597010110636  0.7482405281282909
  0.2464221838817493  0.5013252902434150  0.4923266000081151
  0.0031654072520041  0.7465351863237523  0.4981113243235508
  0.0002709984080094  0.5004558875256865  0.7523899168020670
  0.7438937411095473  0.7639327762498879  0.7445784077072735
  0.7590487997216564  0.4971818951240970  0.4986696142695307
  0.4988678226927558  0.7688738331732193  0.4945484809338488
  0.5036801946995180  0.4979316575225484  0.7518118396462998
  0.5089457001357441  0.0219402319964250  0.9975276757596039
  0.0055709359453997  0.5228355129477218  0.9766780891212510
  0.4996918901090134  0.7325504815107715  0.2732489760212252
  0.2608145277527317  0.0031585148198075  0.7410075980875190
  0.4735123974175142  0.9982372502911463  0.5303216904744698
  0.7191756796447621  0.9864941091620241  0.7836041462792129
  0.0064664779475932  0.7539905945541937  0.2499479179753145
  0.7267500495159496  0.5032456504070495  0.2465939306317423
  0.0110492654521300  0.0054045507101184  0.4840910013943018
  0.4998198940847047  0.5104632367262008  0.4966693893209534
  0.7467904668787584  0.5115043819998347  0.7562828402192058
  0.7497152128250267  0.7361499930813992  0.4959593904284909
 
  0.00000000E+00  0.00000000E+00  0.00000000E+00
  0.00000000E+00  0.00000000E+00  0.00000000E+00
  0.00000000E+00  0.00000000E+00  0.00000000E+00
  0.00000000E+00  0.00000000E+00  0.00000000E+00
  0.00000000E+00  0.00000000E+00  0.00000000E+00
  0.00000000E+00  0.00000000E+00  0.00000000E+00
  0.00000000E+00  0.00000000E+00  0.00000000E+00
  0.00000000E+00  0.00000000E+00  0.00000000E+00
  0.00000000E+00  0.00000000E+00  0.00000000E+00
  0.00000000E+00  0.00000000E+00  0.00000000E+00
  0.00000000E+00  0.00000000E+00  0.00000000E+00
  0.00000000E+00  0.00000000E+00  0.00000000E+00
  0.00000000E+00  0.00000000E+00  0.00000000E+00
  0.00000000E+00  0.00000000E+00  0.00000000E+00
  0.00000000E+00  0.00000000E+00  0.00000000E+00
  0.00000000E+00  0.00000000E+00  0.00000000E+00
  0.00000000E+00  0.00000000E+00  0.00000000E+00
  0.00000000E+00  0.00000000E+00  0.00000000E+00
  0.00000000E+00  0.00000000E+00  0.00000000E+00
  0.00000000E+00  0.00000000E+00  0.00000000E+00
  0.00000000E+00  0.00000000E+00  0.00000000E+00
  0.00000000E+00  0.00000000E+00  0.00000000E+00
  0.00000000E+00  0.00000000E+00  0.00000000E+00
  0.00000000E+00  0.00000000E+00  0.00000000E+00
  0.00000000E+00  0.00000000E+00  0.00000000E+00
  0.00000000E+00  0.00000000E+00  0.00000000E+00
  0.00000000E+00  0.00000000E+00  0.00000000E+00
  0.00000000E+00  0.00000000E+00  0.00000000E+00
  0.00000000E+00  0.00000000E+00  0.00000000E+00
  0.00000000E+00  0.00000000E+00  0.00000000E+00
  0.00000000E+00  0.00000000E+00  0.00000000E+00
  0.00000000E+00  0.00000000E+00  0.00000000E+00
  0.00000000E+00  0.00000000E+00  0.00000000E+00
  0.00000000E+00  0.00000000E+00  0.00000000E+00
  0.00000000E+00  0.00000000E+00  0.00000000E+00
  0.00000000E+00  0.00000000E+00  0.00000000E+00
  0.00000000E+00  0.00000000E+00  0.00000000E+00
  0.00000000E+00  0.00000000E+00  0.00000000E+00
  0.00000000E+00  0.00000000E+00  0.00000000E+00
  0.00000000E+00  0.00000000E+00  0.00000000E+00
  0.00000000E+00  0.00000000E+00  0.00000000E+00
  0.00000000E+00  0.00000000E+00  0.00000000E+00
  0.00000000E+00  0.00000000E+00  0.00000000E+00
  0.00000000E+00  0.00000000E+00  0.00000000E+00
  0.00000000E+00  0.00000000E+00  0.00000000E+00
  0.00000000E+00  0.00000000E+00  0.00000000E+00
  0.00000000E+00  0.00000000E+00  0.00000000E+00
  0.00000000E+00  0.00000000E+00  0.00000000E+00
  0.00000000E+00  0.00000000E+00  0.00000000E+00
  0.00000000E+00  0.00000000E+00  0.00000000E+00
  0.00000000E+00  0.00000000E+00  0.00000000E+00
  0.00000000E+00  0.00000000E+00  0.00000000E+00
  0.00000000E+00  0.00000000E+00  0.00000000E+00
  0.00000000E+00  0.00000000E+00  0.00000000E+00
  0.00000000E+00  0.00000000E+00  0.00000000E+00
  0.00000000E+00  0.00000000E+00  0.00000000E+00
  0.00000000E+00  0.00000000E+00  0.00000000E+00
  0.00000000E+00  0.00000000E+00  0.00000000E+00
  0.00000000E+00  0.00000000E+00  0.00000000E+00
  0.00000000E+00  0.00000000E+00  0.00000000E+00
  0.00000000E+00  0.00000000E+00  0.00000000E+00
  0.00000000E+00  0.00000000E+00  0.00000000E+00
  0.00000000E+00  0.00000000E+00  0.00000000E+00
  0.00000000E+00  0.00000000E+00  0.00000000E+00
