71-TiVNbCrMo                            
   1.00000000000000     
     8.5370155630529094   -0.0091438252213834    0.0052102562799724
    -0.0034460099149306    8.5512960520727574    0.0155310396491567
     0.0359097903119953    0.0004365683015372    8.6014920046197911
   V    Nb   Ti   N    C    Cr   Mo
     7     6     7    13    19     6     6
Direct
  0.0103174272531767  0.9839666706830185  0.0196315517312821
  0.2391207197683804  0.9850107747155921  0.2480927260666291
  0.2638171294382043  0.5130579735584796  0.2453220151420663
  0.4979332739118411  0.4806321414914462  0.9955176135758952
  0.4848611992388140  0.2405025821958387  0.7564984276268218
  0.0054364576877450  0.4962336416691421  0.5211357417407102
  0.5024508569405860  0.7541661317196294  0.7342139326389795
  0.0007196476478912  0.2601274082234216  0.2508124084321799
  0.7423606332691839  0.7503369442030983  0.0013984781159099
  0.0082761516007210  0.2397427312085897  0.7501461505514561
  0.7490371546894821  0.2507331026205191  0.5082333130502937
  0.0019315028662360  0.7581426482121750  0.7488347460302343
  0.2547901439889477  0.5012376200938239  0.7529356201196400
  0.2490458358658934  0.2451372529825073  0.0016228787411084
  0.4941433123905551  0.2411641811990803  0.2448847474375614
  0.7390996725903136  0.9938566109799755  0.2523873957969188
  0.7493784057379869  0.2475000565308214  0.9947520695101838
  0.2651651159918743  0.7553754756385282  0.9997281978627179
  0.2518759698291759  0.2503321877416894  0.4972518987937073
  0.2509241530222137  0.7510855399811683  0.4971854625379633
  0.2524011938799506  0.2499287797253501  0.2484971198060352
  0.2531666706693187  0.0005119963060742  0.9985530734780174
  0.0008402869433704  0.2437192794880798  0.0015304717107376
  0.7431240294841702  0.2425890787674218  0.2478029141536705
  0.7533238035957610  0.0028909642895296  0.0026451357536954
  0.4976427420226829  0.0015641588332705  0.2323766621298695
  0.0041691165537141  0.4996426269673407  0.2462484738662934
  0.4998951994548283  0.7539294745485010  0.9925029753319718
  0.0043658560898397  0.0008635943454470  0.7560084780959060
  0.7449354436687430  0.2375047678284812  0.7534189531350719
  0.7451711547665071  0.0023548253056020  0.4956391058801289
  0.4969774094398680  0.2444594347434684  0.5000925733468814
  0.5003422599516379  0.9990104299941934  0.7531819108513819
  0.9969222553831073  0.0022657128652246  0.2456404401672944
  0.4992802665850220  0.2498147357719359  0.9962966957776652
  0.2634453876356521  0.7518494327859334  0.2484829904032451
  0.2485256623669120  0.5010767662117378  0.0057752880684460
  0.0074689218593502  0.7493760461108043  0.0009519541689881
  0.7419912835061032  0.7493590426728457  0.2491482185143519
  0.7572346737918627  0.4958055373545286  0.0030525884723032
  0.4897704526538897  0.5017333835345004  0.2414040237176593
  0.2564095521243808  0.2433912475628048  0.7504371353910922
  0.2549108799758150  0.0005035580510509  0.4961622773628531
  0.0044781581272989  0.2561955799448736  0.5006590339902929
  0.2591975562140025  0.7591484271942713  0.7482473437948823
  0.2464254792663312  0.5013275574731315  0.4923513966015993
  0.0031654433687639  0.7465632802101068  0.4981140640366872
  0.0002447158246886  0.5004524064019552  0.7524299919133238
  0.7438906689369548  0.7639208285966759  0.7445747199289130
  0.7590278365549745  0.4971282580816401  0.4986513722829510
  0.4988853471690722  0.7688457901521877  0.4945952412924335
  0.5036676197060399  0.4979465409069500  0.7518262228331311
  0.5089295831593044  0.0219257867962978  0.9975310049460084
  0.0054366714172962  0.5228781144474733  0.9765849446086388
  0.4997732335013646  0.7325472415609173  0.2734025347701562
  0.2606883436820669  0.0031259015598903  0.7410957564085682
  0.4734170505698250  0.9983167281478087  0.5303946164928173
  0.7191466174705398  0.9864878268357793  0.7836031294190267
  0.0064673904854287  0.7539735705102050  0.2499666963695869
  0.7267704375487106  0.5032536428977176  0.2465609839818841
  0.0111260993665001  0.0053913212798736  0.4840352025147078
  0.4997993946227866  0.5104201201473244  0.4967390328392912
  0.7467495032865916  0.5115564203435513  0.7562864609343813
  0.7497139595897607  0.7361078577987097  0.4959155509548980
 
  0.00000000E+00  0.00000000E+00  0.00000000E+00
  0.00000000E+00  0.00000000E+00  0.00000000E+00
  0.00000000E+00  0.00000000E+00  0.00000000E+00
  0.00000000E+00  0.00000000E+00  0.00000000E+00
  0.00000000E+00  0.00000000E+00  0.00000000E+00
  0.00000000E+00  0.00000000E+00  0.00000000E+00
  0.00000000E+00  0.00000000E+00  0.00000000E+00
  0.00000000E+00  0.00000000E+00  0.00000000E+00
  0.00000000E+00  0.00000000E+00  0.00000000E+00
  0.00000000E+00  0.00000000E+00  0.00000000E+00
  0.00000000E+00  0.00000000E+00  0.00000000E+00
  0.00000000E+00  0.00000000E+00  0.00000000E+00
  0.00000000E+00  0.00000000E+00  0.00000000E+00
  0.00000000E+00  0.00000000E+00  0.00000000E+00
  0.00000000E+00  0.00000000E+00  0.00000000E+00
  0.00000000E+00  0.00000000E+00  0.00000000E+00
  0.00000000E+00  0.00000000E+00  0.00000000E+00
  0.00000000E+00  0.00000000E+00  0.00000000E+00
  0.00000000E+00  0.00000000E+00  0.00000000E+00
  0.00000000E+00  0.00000000E+00  0.00000000E+00
  0.00000000E+00  0.00000000E+00  0.00000000E+00
  0.00000000E+00  0.00000000E+00  0.00000000E+00
  0.00000000E+00  0.00000000E+00  0.00000000E+00
  0.00000000E+00  0.00000000E+00  0.00000000E+00
  0.00000000E+00  0.00000000E+00  0.00000000E+00
  0.00000000E+00  0.00000000E+00  0.00000000E+00
  0.00000000E+00  0.00000000E+00  0.00000000E+00
  0.00000000E+00  0.00000000E+00  0.00000000E+00
  0.00000000E+00  0.00000000E+00  0.00000000E+00
  0.00000000E+00  0.00000000E+00  0.00000000E+00
  0.00000000E+00  0.00000000E+00  0.00000000E+00
  0.00000000E+00  0.00000000E+00  0.00000000E+00
  0.00000000E+00  0.00000000E+00  0.00000000E+00
  0.00000000E+00  0.00000000E+00  0.00000000E+00
  0.00000000E+00  0.00000000E+00  0.00000000E+00
  0.00000000E+00  0.00000000E+00  0.00000000E+00
  0.00000000E+00  0.00000000E+00  0.00000000E+00
  0.00000000E+00  0.00000000E+00  0.00000000E+00
  0.00000000E+00  0.00000000E+00  0.00000000E+00
  0.00000000E+00  0.00000000E+00  0.00000000E+00
  0.00000000E+00  0.00000000E+00  0.00000000E+00
  0.00000000E+00  0.00000000E+00  0.00000000E+00
  0.00000000E+00  0.00000000E+00  0.00000000E+00
  0.00000000E+00  0.00000000E+00  0.00000000E+00
  0.00000000E+00  0.00000000E+00  0.00000000E+00
  0.00000000E+00  0.00000000E+00  0.00000000E+00
  0.00000000E+00  0.00000000E+00  0.00000000E+00
  0.00000000E+00  0.00000000E+00  0.00000000E+00
  0.00000000E+00  0.00000000E+00  0.00000000E+00
  0.00000000E+00  0.00000000E+00  0.00000000E+00
  0.00000000E+00  0.00000000E+00  0.00000000E+00
  0.00000000E+00  0.00000000E+00  0.00000000E+00
  0.00000000E+00  0.00000000E+00  0.00000000E+00
  0.00000000E+00  0.00000000E+00  0.00000000E+00
  0.00000000E+00  0.00000000E+00  0.00000000E+00
  0.00000000E+00  0.00000000E+00  0.00000000E+00
  0.00000000E+00  0.00000000E+00  0.00000000E+00
  0.00000000E+00  0.00000000E+00  0.00000000E+00
  0.00000000E+00  0.00000000E+00  0.00000000E+00
  0.00000000E+00  0.00000000E+00  0.00000000E+00
  0.00000000E+00  0.00000000E+00  0.00000000E+00
  0.00000000E+00  0.00000000E+00  0.00000000E+00
  0.00000000E+00  0.00000000E+00  0.00000000E+00
  0.00000000E+00  0.00000000E+00  0.00000000E+00
