AnionSQS_1                              
   1.00000000000000     
     8.8722000292544028   -0.0038089484041295    0.0224206106427749
    -0.0038301983546932    8.9002237776068327    0.0056518491669561
     0.0222739277942613    0.0056799394393112    8.9167995195131216
  Hf              Nb              Cr              Zr              C               N               V             
     7     6     6     7    19    13     6
Direct
  0.9970397923181842  0.9979308551883826  0.9998290431142509
  0.7311756177075451  0.9890427172666681  0.2559096571591705
  0.0080077397010043  0.7500436579030696  0.2532996264304927
  0.5006072477549892  0.5051139344154434  0.9962630428558538
  0.9896264344283235  0.0043408483158533  0.5025923805493320
  0.2433800630572362  0.0022836371764415  0.7422039678270352
  0.7482424903706306  0.2484023210987038  0.5089720326542349
  0.9988113266788811  0.2483504925537659  0.2394409352227266
  0.4973212168176511  0.2631630187015283  0.2571943622565030
  0.7497834082050918  0.2385019206612840  0.9927461663391085
  0.7490325070487496  0.7580214962946923  0.9890194089404790
  0.9906405838665899  0.4949495461826426  0.4975557306826405
  0.2669463430723402  0.7454461726668109  0.4912741207692240
  0.2555125779385616  0.0226083060407454  0.2782078719966899
  0.0196645664002006  0.5003779296832929  0.0106491429275777
  0.4823850484428916  0.7205278317685503  0.2678273379928480
  0.0060305122414811  0.2629279004661361  0.7792013215267618
  0.7489863153831432  0.9801932871453646  0.7652694301350981
  0.7492758762709971  0.7296776516447383  0.5204199920494930
  0.2525453813998419  0.2458216335666250  0.0031735525268178
  0.2580777278706119  0.7566625194028985  0.0058272312266395
  0.7526670304815323  0.5048839410418661  0.2456129798575630
  0.4994825558226776  0.2486421933062909  0.7472966786858841
  0.9981491859336247  0.7440318717519339  0.7475633504615313
  0.2468537806004810  0.4970099615402795  0.7430093736352380
  0.5048601405507710  0.7558038482461211  0.7349035000287838
  0.2494847541030862  0.2534436875958251  0.2622142341588427
  0.9975366157334142  0.2583748703371382  0.9974745726401962
  0.0064912953540631  0.0023387915735360  0.2539781666947151
  0.7475201009624627  0.2471016599185723  0.2472403307765925
  0.7469800370509539  0.9985964009584684  0.9990598502549823
  0.2612430788820814  0.7496999494749448  0.2550620045898017
  0.2470358070530734  0.5011568737429568  0.0087254818288244
  0.9972381477269143  0.7418881980362377  0.0028734925799001
  0.0091189896751748  0.4979045994886123  0.2476949977457301
  0.4911083460655416  0.5050373987407094  0.2573003099785857
  0.2368040603849337  0.2484498988002558  0.7413683982859021
  0.9872839381441418  0.0105465318062473  0.7517272455309637
  0.7329174369178123  0.9910228888866884  0.5102975722462221
  0.4912253802609280  0.2565058020213081  0.4970509793467775
  0.2522266667419858  0.7524095239289817  0.7419909716902805
  0.9880487664029440  0.4872190199915259  0.7550145265312267
  0.7511162686065522  0.7543788184938123  0.7392619614503974
  0.7484110669917480  0.5000633357480806  0.5040368013372355
  0.5104197898254782  0.5020428151342351  0.7418424316572999
  0.2603707346999813  0.0020843610585120  0.9947492688928623
  0.5054615575619092  0.2451541289470538  0.0026969862999580
  0.4861811896936143  0.0038805027338422  0.2591851707707847
  0.7449689318367533  0.7499631955173597  0.2437354233485097
  0.7491574124020525  0.5004318340860210  0.9917640842871599
  0.5071484847582995  0.7553598616331644  0.0042412113671233
  0.2482603426141731  0.0026639005396753  0.4974861534181292
  0.0003145667588118  0.2529041172794264  0.4980881913587216
  0.7565025537627814  0.2575535297972674  0.7544086875494317
  0.5031876087580331  0.0020371836376902  0.7484742837029471
  0.2479874537367394  0.5049678669588690  0.4898141067514629
  0.9979717257181177  0.7483316120583038  0.4969464357838892
  0.5122927574505493  0.7435318015232957  0.4823842865482457
  0.5180845135886697  0.9996886864234326  0.9776767618241093
  0.2442279433146283  0.4913143932304510  0.2457836628575161
  0.2618803098360766  0.2349868391095721  0.4932223183043152
  0.4878435639091643  0.0204703534447759  0.4906205165730541
  0.5232388964537620  0.4998325976016029  0.5015681989205122
  0.7476034358985612  0.5119026757114186  0.7376776842648115
 
  0.00000000E+00  0.00000000E+00  0.00000000E+00
  0.00000000E+00  0.00000000E+00  0.00000000E+00
  0.00000000E+00  0.00000000E+00  0.00000000E+00
  0.00000000E+00  0.00000000E+00  0.00000000E+00
  0.00000000E+00  0.00000000E+00  0.00000000E+00
  0.00000000E+00  0.00000000E+00  0.00000000E+00
  0.00000000E+00  0.00000000E+00  0.00000000E+00
  0.00000000E+00  0.00000000E+00  0.00000000E+00
  0.00000000E+00  0.00000000E+00  0.00000000E+00
  0.00000000E+00  0.00000000E+00  0.00000000E+00
  0.00000000E+00  0.00000000E+00  0.00000000E+00
  0.00000000E+00  0.00000000E+00  0.00000000E+00
  0.00000000E+00  0.00000000E+00  0.00000000E+00
  0.00000000E+00  0.00000000E+00  0.00000000E+00
  0.00000000E+00  0.00000000E+00  0.00000000E+00
  0.00000000E+00  0.00000000E+00  0.00000000E+00
  0.00000000E+00  0.00000000E+00  0.00000000E+00
  0.00000000E+00  0.00000000E+00  0.00000000E+00
  0.00000000E+00  0.00000000E+00  0.00000000E+00
  0.00000000E+00  0.00000000E+00  0.00000000E+00
  0.00000000E+00  0.00000000E+00  0.00000000E+00
  0.00000000E+00  0.00000000E+00  0.00000000E+00
  0.00000000E+00  0.00000000E+00  0.00000000E+00
  0.00000000E+00  0.00000000E+00  0.00000000E+00
  0.00000000E+00  0.00000000E+00  0.00000000E+00
  0.00000000E+00  0.00000000E+00  0.00000000E+00
  0.00000000E+00  0.00000000E+00  0.00000000E+00
  0.00000000E+00  0.00000000E+00  0.00000000E+00
  0.00000000E+00  0.00000000E+00  0.00000000E+00
  0.00000000E+00  0.00000000E+00  0.00000000E+00
  0.00000000E+00  0.00000000E+00  0.00000000E+00
  0.00000000E+00  0.00000000E+00  0.00000000E+00
  0.00000000E+00  0.00000000E+00  0.00000000E+00
  0.00000000E+00  0.00000000E+00  0.00000000E+00
  0.00000000E+00  0.00000000E+00  0.00000000E+00
  0.00000000E+00  0.00000000E+00  0.00000000E+00
  0.00000000E+00  0.00000000E+00  0.00000000E+00
  0.00000000E+00  0.00000000E+00  0.00000000E+00
  0.00000000E+00  0.00000000E+00  0.00000000E+00
  0.00000000E+00  0.00000000E+00  0.00000000E+00
  0.00000000E+00  0.00000000E+00  0.00000000E+00
  0.00000000E+00  0.00000000E+00  0.00000000E+00
  0.00000000E+00  0.00000000E+00  0.00000000E+00
  0.00000000E+00  0.00000000E+00  0.00000000E+00
  0.00000000E+00  0.00000000E+00  0.00000000E+00
  0.00000000E+00  0.00000000E+00  0.00000000E+00
  0.00000000E+00  0.00000000E+00  0.00000000E+00
  0.00000000E+00  0.00000000E+00  0.00000000E+00
  0.00000000E+00  0.00000000E+00  0.00000000E+00
  0.00000000E+00  0.00000000E+00  0.00000000E+00
  0.00000000E+00  0.00000000E+00  0.00000000E+00
  0.00000000E+00  0.00000000E+00  0.00000000E+00
  0.00000000E+00  0.00000000E+00  0.00000000E+00
  0.00000000E+00  0.00000000E+00  0.00000000E+00
  0.00000000E+00  0.00000000E+00  0.00000000E+00
  0.00000000E+00  0.00000000E+00  0.00000000E+00
  0.00000000E+00  0.00000000E+00  0.00000000E+00
  0.00000000E+00  0.00000000E+00  0.00000000E+00
  0.00000000E+00  0.00000000E+00  0.00000000E+00
  0.00000000E+00  0.00000000E+00  0.00000000E+00
  0.00000000E+00  0.00000000E+00  0.00000000E+00
  0.00000000E+00  0.00000000E+00  0.00000000E+00
  0.00000000E+00  0.00000000E+00  0.00000000E+00
  0.00000000E+00  0.00000000E+00  0.00000000E+00
