TiZrHfNbW                               
   1.00000000000000     
     8.9868203934734137    0.0076661152275559   -0.0005426309863370
     0.0076834057531598    9.0544015016159705   -0.0059279513806780
    -0.0005338531235513   -0.0059126331343623    8.9596270150091524
  Ti              Nb              Hf              N               C               Zr              W             
     7     6     6    13    19     7     6
Direct
  0.9972091210972952  0.9945777179347945  0.0096065430749410
  0.2406180946209353  0.9946410238543967  0.2510280267611838
  0.2641421643540198  0.5042070503899562  0.2495877054793431
  0.5000460242864874  0.4999452624471428  0.9982138993414877
  0.4929843920711616  0.2607216527567960  0.7514676165596664
  0.0131759209851750  0.4975947516563828  0.4937573240715634
  0.5014336246045747  0.7372851514181510  0.7484181311536892
  0.9966398564806295  0.2388735294720579  0.2598133234469737
  0.7564626671481027  0.7463334943798889  0.9997901182478368
  0.0043343414054958  0.2671942145359744  0.7396009575623113
  0.7557792923411675  0.2733462026844235  0.5026122530468808
  0.9954637154289132  0.7331826901132394  0.7432258031420974
  0.2572125182607159  0.4999941132577919  0.7499623350371385
  0.2461408102770714  0.2512338971806578  0.0024115481325955
  0.5015629603765968  0.2536683105919487  0.2490250275442616
  0.7543241555170851  0.9949766588025538  0.2557681528409910
  0.7523878731760271  0.2507143945344318  0.9945055006195592
  0.2463589388000423  0.7495144024247521  0.0002284746307276
  0.2497464704796939  0.2519728982310566  0.4978743540694723
  0.2518461612026931  0.2486222048519026  0.2498858324715305
  0.2455954658789581  0.0010428389279178  0.0064485370823142
  0.0003367136595544  0.2450611014046560  0.0010367268491079
  0.7488443160588268  0.2484247714276295  0.2492927684762185
  0.7556559739242645  0.0035877811459935  0.0007713759468972
  0.5023508313016306  0.0039488648700762  0.2490079539548412
  0.9961379530982383  0.5004068422871467  0.2586303641707489
  0.4970846410061308  0.7461258431560320  0.9948788358883481
  0.9970506030780070  0.0021639026194986  0.7478808279498426
  0.7455165285979412  0.2497905708897296  0.7497648638280161
  0.7540623804617176  0.0040320915308871  0.4970496880077301
  0.5010194782686752  0.2517515473248164  0.5025067281285718
  0.5031998675986513  0.0010713568815135  0.7501594504384951
  0.0026945395114590  0.0000080201240383  0.2462224254475198
  0.5002679262907959  0.2533974692126182  0.9966522915414914
  0.2424668761860430  0.7505036553612827  0.2479479219935336
  0.2544727565386450  0.4996721358631574  0.0058548219615040
  0.9988740354536492  0.7563645672416563  0.0040240670349066
  0.7557935293408364  0.7433289987049978  0.2525295634609885
  0.7428418232156430  0.4993188624080542  0.0022298000868060
  0.4987611531496753  0.4980714872176861  0.2500905479945333
  0.2534160862465072  0.2527591827644823  0.7500113181067379
  0.2444245873378423  0.0030030034739565  0.4928332950405858
  0.0008696933466169  0.2517489736803912  0.5000396540437538
  0.2524110697042943  0.7470905834143439  0.7528709826727977
  0.2531376005253706  0.4978072439983020  0.4943505316673488
  0.9928054412088255  0.7529323361025232  0.4970338466826857
  0.9957566737725559  0.4997175046307971  0.7424967910221543
  0.7443192332273916  0.7427921063297974  0.7486920049866175
  0.7551186559313506  0.5018802509550195  0.5004836589184427
  0.5055824666055638  0.7431020212304150  0.5075230622668655
  0.5047699636598876  0.4987294169940303  0.7505114429092480
  0.5006367252211329  0.9996528595680485  0.9954967173798622
  0.9998076804209178  0.5029750390104368  0.0086163366552214
  0.4997755935238899  0.7464074639280783  0.2501656572199558
  0.2434913762734648  0.9998385136388617  0.7508115882135161
  0.4944974950215961  0.9964658914231284  0.5036274281426523
  0.7554522368972875  0.9918974132687783  0.7425835800630032
  0.2475511755017478  0.7476218939483626  0.5010246994899431
  0.0008334872665340  0.7686314061963782  0.2573890442863043
  0.7327383610284020  0.5062019739288504  0.2390522796215601
  0.0119480056427657  0.0047151286185124  0.4858472402558841
  0.4961391535363540  0.5052080414970135  0.5032347729838721
  0.7423188584447897  0.5086433256191089  0.7654492789349543
  0.7513025561217417  0.7235067676627535  0.5000929729594233
 
  0.00000000E+00  0.00000000E+00  0.00000000E+00
  0.00000000E+00  0.00000000E+00  0.00000000E+00
  0.00000000E+00  0.00000000E+00  0.00000000E+00
  0.00000000E+00  0.00000000E+00  0.00000000E+00
  0.00000000E+00  0.00000000E+00  0.00000000E+00
  0.00000000E+00  0.00000000E+00  0.00000000E+00
  0.00000000E+00  0.00000000E+00  0.00000000E+00
  0.00000000E+00  0.00000000E+00  0.00000000E+00
  0.00000000E+00  0.00000000E+00  0.00000000E+00
  0.00000000E+00  0.00000000E+00  0.00000000E+00
  0.00000000E+00  0.00000000E+00  0.00000000E+00
  0.00000000E+00  0.00000000E+00  0.00000000E+00
  0.00000000E+00  0.00000000E+00  0.00000000E+00
  0.00000000E+00  0.00000000E+00  0.00000000E+00
  0.00000000E+00  0.00000000E+00  0.00000000E+00
  0.00000000E+00  0.00000000E+00  0.00000000E+00
  0.00000000E+00  0.00000000E+00  0.00000000E+00
  0.00000000E+00  0.00000000E+00  0.00000000E+00
  0.00000000E+00  0.00000000E+00  0.00000000E+00
  0.00000000E+00  0.00000000E+00  0.00000000E+00
  0.00000000E+00  0.00000000E+00  0.00000000E+00
  0.00000000E+00  0.00000000E+00  0.00000000E+00
  0.00000000E+00  0.00000000E+00  0.00000000E+00
  0.00000000E+00  0.00000000E+00  0.00000000E+00
  0.00000000E+00  0.00000000E+00  0.00000000E+00
  0.00000000E+00  0.00000000E+00  0.00000000E+00
  0.00000000E+00  0.00000000E+00  0.00000000E+00
  0.00000000E+00  0.00000000E+00  0.00000000E+00
  0.00000000E+00  0.00000000E+00  0.00000000E+00
  0.00000000E+00  0.00000000E+00  0.00000000E+00
  0.00000000E+00  0.00000000E+00  0.00000000E+00
  0.00000000E+00  0.00000000E+00  0.00000000E+00
  0.00000000E+00  0.00000000E+00  0.00000000E+00
  0.00000000E+00  0.00000000E+00  0.00000000E+00
  0.00000000E+00  0.00000000E+00  0.00000000E+00
  0.00000000E+00  0.00000000E+00  0.00000000E+00
  0.00000000E+00  0.00000000E+00  0.00000000E+00
  0.00000000E+00  0.00000000E+00  0.00000000E+00
  0.00000000E+00  0.00000000E+00  0.00000000E+00
  0.00000000E+00  0.00000000E+00  0.00000000E+00
  0.00000000E+00  0.00000000E+00  0.00000000E+00
  0.00000000E+00  0.00000000E+00  0.00000000E+00
  0.00000000E+00  0.00000000E+00  0.00000000E+00
  0.00000000E+00  0.00000000E+00  0.00000000E+00
  0.00000000E+00  0.00000000E+00  0.00000000E+00
  0.00000000E+00  0.00000000E+00  0.00000000E+00
  0.00000000E+00  0.00000000E+00  0.00000000E+00
  0.00000000E+00  0.00000000E+00  0.00000000E+00
  0.00000000E+00  0.00000000E+00  0.00000000E+00
  0.00000000E+00  0.00000000E+00  0.00000000E+00
  0.00000000E+00  0.00000000E+00  0.00000000E+00
  0.00000000E+00  0.00000000E+00  0.00000000E+00
  0.00000000E+00  0.00000000E+00  0.00000000E+00
  0.00000000E+00  0.00000000E+00  0.00000000E+00
  0.00000000E+00  0.00000000E+00  0.00000000E+00
  0.00000000E+00  0.00000000E+00  0.00000000E+00
  0.00000000E+00  0.00000000E+00  0.00000000E+00
  0.00000000E+00  0.00000000E+00  0.00000000E+00
  0.00000000E+00  0.00000000E+00  0.00000000E+00
  0.00000000E+00  0.00000000E+00  0.00000000E+00
  0.00000000E+00  0.00000000E+00  0.00000000E+00
  0.00000000E+00  0.00000000E+00  0.00000000E+00
  0.00000000E+00  0.00000000E+00  0.00000000E+00
  0.00000000E+00  0.00000000E+00  0.00000000E+00
