TiZrHfNbTa                              
   1.00000000000000     
     8.9817404821884157    0.0030024207642959   -0.0013183020608991
     0.0029908638168143    9.0408420870149211    0.0006112432782680
    -0.0013254362676833    0.0006391465365507    8.9839826239533540
   Ti   Nb   Hf   N    C    Zr   Ta
     7     6     6    13    19     7     6
Direct
  0.0002019782357620  0.9977639767776166  0.0119997857193783
  0.2433509663914022  0.9964592425642492  0.2512203460873201
  0.2563644985637160  0.5053761295864868  0.2486031272025039
  0.4993704154116834  0.5001546138179479  0.9993736104350393
  0.4906849917482785  0.2587887317996906  0.7544352241966771
  0.0037941731901004  0.4996217321658699  0.4976047382886467
  0.4989380078229777  0.7398361395272344  0.7497741453391025
  0.9990306157157322  0.2386030875566291  0.2598975445998372
  0.7543227529581731  0.7443471956710216  0.9969307327851937
  0.0048534018868264  0.2640959288244743  0.7384463157944199
  0.7593187464451161  0.2643146031325500  0.5015645850429240
  0.9990057028246051  0.7366790958743819  0.7490973731142118
  0.2539493405139582  0.4994668806713694  0.7522800856936048
  0.2467494097567984  0.2519501399866637  0.0020880971340457
  0.4979277616363884  0.2527547673282051  0.2474915052866060
  0.7544186606698950  0.9973959500705486  0.2501381246338002
  0.7511298171231129  0.2542845867247035  0.9956396732483604
  0.2487460192529089  0.7484353872229710  0.9997776364504658
  0.2477714720774516  0.2531817298513730  0.4976861467684870
  0.2502047035291922  0.2494937601257470  0.2494569056462566
  0.2434015000517614  0.0012056294962834  0.0063659970512263
 -0.0001238272822602  0.2420157690619051  0.0001733514728780
  0.7492036512922358  0.2511552295006791  0.2493489975816134
  0.7563366438735819  0.0035394324119476  0.0018043122622190
  0.5012815562698260  0.0048995606037574  0.2496910638263198
  0.9972197773314000  0.4997081344924795  0.2563604300490793
  0.4987073491327541  0.7466852712389386  0.9946725463510498
  0.9972394869109357  0.0026976285928470  0.7486141750215510
  0.7468131215567168  0.2524600849269830  0.7493511917989881
  0.7551215862322869  0.0014384871065183  0.4981659997667071
  0.5016485186235327  0.2527605788147403  0.5015035038651623
  0.5025441393206990  0.0021966526111342  0.7501007211352919
  0.0027801985120180  0.9975836786509539  0.2481407934577715
  0.4994108789991740  0.2528131547424756  0.9969496599790115
  0.2456249215154625  0.7490261491798771  0.2477270233229695
  0.2541324505194101  0.4994456952602595  0.0049150296728943
  0.9986610570650603  0.7557369436226468  0.0011847895976649
  0.7533425610831020  0.7466136956045410  0.2511630562875282
  0.7455834753129137  0.5004452624586825  0.0007232466457167
  0.4997418908295106  0.4983748721124764  0.2502147444993441
  0.2524003815780844  0.2527289189642380  0.7504500911061697
  0.2453087661831364  0.0026917322316390  0.4940793598291884
  0.0011358100021772  0.2526180441837014  0.4995847282995775
  0.2532633708736913  0.7469022160914204  0.7528885028400623
  0.2496233853309295  0.4979540712012107  0.4953322218012309
  0.9958439924629174  0.7494553398950764  0.4985128604714131
  0.9978694189387508  0.5004627484011805  0.7434699829418269
  0.7459739659570386  0.7456988798271904  0.7492626674623720
  0.7539360033339080  0.5005496841421987  0.4993047218175479
  0.5041601529701978  0.7453293634463019  0.5063116295374339
  0.5018692223547158  0.4987600858276953  0.7511076331468325
  0.4990514939173304  0.0011307183349990  0.9969457885804472
  0.0010010939321505  0.5009823741480222  0.0036213387102415
  0.4988755467175927  0.7485674576208066  0.2496197034801092
  0.2448592179346803  0.9998901627055523  0.7497725137551574
  0.4979828405376991  0.9981944902659312  0.5028102014364833
  0.7547327037439364  0.9957910196913654  0.7494763766369040
  0.2483261455112903  0.7462792522390510  0.5009858760017436
  0.0007749624915945  0.7583481090926788  0.2508740063532548
  0.7447760456102670  0.5046666313598769  0.2486891226501939
  0.0037501579281899  0.0006704215185566  0.4907705352943367
  0.4984854826829927  0.5003129215717016  0.5010402570256979
  0.7457392897554423  0.5019619182581179  0.7515386926174568
  0.7514568483471422  0.7362485212116973  0.5028755230924995
 
  0.00000000E+00  0.00000000E+00  0.00000000E+00
  0.00000000E+00  0.00000000E+00  0.00000000E+00
  0.00000000E+00  0.00000000E+00  0.00000000E+00
  0.00000000E+00  0.00000000E+00  0.00000000E+00
  0.00000000E+00  0.00000000E+00  0.00000000E+00
  0.00000000E+00  0.00000000E+00  0.00000000E+00
  0.00000000E+00  0.00000000E+00  0.00000000E+00
  0.00000000E+00  0.00000000E+00  0.00000000E+00
  0.00000000E+00  0.00000000E+00  0.00000000E+00
  0.00000000E+00  0.00000000E+00  0.00000000E+00
  0.00000000E+00  0.00000000E+00  0.00000000E+00
  0.00000000E+00  0.00000000E+00  0.00000000E+00
  0.00000000E+00  0.00000000E+00  0.00000000E+00
  0.00000000E+00  0.00000000E+00  0.00000000E+00
  0.00000000E+00  0.00000000E+00  0.00000000E+00
  0.00000000E+00  0.00000000E+00  0.00000000E+00
  0.00000000E+00  0.00000000E+00  0.00000000E+00
  0.00000000E+00  0.00000000E+00  0.00000000E+00
  0.00000000E+00  0.00000000E+00  0.00000000E+00
  0.00000000E+00  0.00000000E+00  0.00000000E+00
  0.00000000E+00  0.00000000E+00  0.00000000E+00
  0.00000000E+00  0.00000000E+00  0.00000000E+00
  0.00000000E+00  0.00000000E+00  0.00000000E+00
  0.00000000E+00  0.00000000E+00  0.00000000E+00
  0.00000000E+00  0.00000000E+00  0.00000000E+00
  0.00000000E+00  0.00000000E+00  0.00000000E+00
  0.00000000E+00  0.00000000E+00  0.00000000E+00
  0.00000000E+00  0.00000000E+00  0.00000000E+00
  0.00000000E+00  0.00000000E+00  0.00000000E+00
  0.00000000E+00  0.00000000E+00  0.00000000E+00
  0.00000000E+00  0.00000000E+00  0.00000000E+00
  0.00000000E+00  0.00000000E+00  0.00000000E+00
  0.00000000E+00  0.00000000E+00  0.00000000E+00
  0.00000000E+00  0.00000000E+00  0.00000000E+00
  0.00000000E+00  0.00000000E+00  0.00000000E+00
  0.00000000E+00  0.00000000E+00  0.00000000E+00
  0.00000000E+00  0.00000000E+00  0.00000000E+00
  0.00000000E+00  0.00000000E+00  0.00000000E+00
  0.00000000E+00  0.00000000E+00  0.00000000E+00
  0.00000000E+00  0.00000000E+00  0.00000000E+00
  0.00000000E+00  0.00000000E+00  0.00000000E+00
  0.00000000E+00  0.00000000E+00  0.00000000E+00
  0.00000000E+00  0.00000000E+00  0.00000000E+00
  0.00000000E+00  0.00000000E+00  0.00000000E+00
  0.00000000E+00  0.00000000E+00  0.00000000E+00
  0.00000000E+00  0.00000000E+00  0.00000000E+00
  0.00000000E+00  0.00000000E+00  0.00000000E+00
  0.00000000E+00  0.00000000E+00  0.00000000E+00
  0.00000000E+00  0.00000000E+00  0.00000000E+00
  0.00000000E+00  0.00000000E+00  0.00000000E+00
  0.00000000E+00  0.00000000E+00  0.00000000E+00
  0.00000000E+00  0.00000000E+00  0.00000000E+00
  0.00000000E+00  0.00000000E+00  0.00000000E+00
  0.00000000E+00  0.00000000E+00  0.00000000E+00
  0.00000000E+00  0.00000000E+00  0.00000000E+00
  0.00000000E+00  0.00000000E+00  0.00000000E+00
  0.00000000E+00  0.00000000E+00  0.00000000E+00
  0.00000000E+00  0.00000000E+00  0.00000000E+00
  0.00000000E+00  0.00000000E+00  0.00000000E+00
  0.00000000E+00  0.00000000E+00  0.00000000E+00
  0.00000000E+00  0.00000000E+00  0.00000000E+00
  0.00000000E+00  0.00000000E+00  0.00000000E+00
  0.00000000E+00  0.00000000E+00  0.00000000E+00
  0.00000000E+00  0.00000000E+00  0.00000000E+00
