66-TiHfVCrW                             
   1.00000000000000     
     8.6500619017764944    0.0127131344569907   -0.0089203068684146
     0.0185557280073889    8.6993091061404169   -0.0213583113315666
     0.0221699161714888   -0.0361285859636344    8.6603354672722634
   Hf   V    Ti   N    C    Cr   W 
     7     6     7    13    19     6     6
Direct
  0.9993665775189953  0.0034236430000713  0.9916714366719207
  0.2675381963655599  0.0014495556186130  0.2470737282193018
  0.2405132097222372  0.4934307148155143  0.2466203412610475
  0.4984409939676952  0.5002188114934867 -0.0003412803416507
  0.5141832625818384  0.2448383073265273  0.7398824196199533
 -0.0028930415164413  0.5006351282711947  0.5023639713185991
  0.4913667701432748  0.7582654079453948  0.7567251700398787
  0.9891076923691533  0.2266961530844905  0.2623762186768085
  0.7682811865663571  0.7385319485945547  0.0053401324237066
  0.0031515552278583  0.2517917453041857  0.7400097203762006
  0.7649574015817255  0.2305953663995791  0.4821741148427356
  0.0013213428611380  0.7380201954892610  0.7626394739731596
  0.2417078476256698  0.4844125346447818  0.7525255037654635
  0.2488391980921801  0.2457283958810429  0.9901321631876033
  0.5109581137776251  0.2544373910099285  0.2534215510730995
  0.7388890577309117  0.9964548884417935  0.2502107877423454
  0.7568668331748372  0.2562651091678825  0.0034308613391192
  0.2424352003894273  0.7476601098957801  0.9966024501454097
  0.2489001223544518  0.2488862780161587  0.5040805289993445
  0.2463158811083090  0.7514041788426803  0.5070506448544557
  0.2499813764112234  0.2469359689539478  0.2494814312843867
  0.2554229439077417  0.0020177915286561  0.9932530333229942
  0.0023150884269105  0.2548491985949394  0.0012812186202064
  0.7534910395636614  0.2500434079052428  0.2489997132007065
  0.7475462302020403  0.9993864748627639  0.0029688252316423
  0.5097763370817068  0.0041378199971722  0.2490547492518130
  0.9901378821179591  0.4958694398103362  0.2449361182811979
  0.4994726073742864  0.7590474356531203  0.0063635820686772
  0.9826056947989394  0.0080427587914651  0.7426623475359980
  0.7618573700601053  0.2558358414113735  0.7495819492554898
  0.7470385582598232  0.0077744713555148  0.4997337462867006
  0.5054260749820303  0.2510284339579524  0.4916641483648418
  0.5256058285084195  0.0004399398462816  0.7481966880327470
  0.9975674504285221  0.0021155888893395  0.2514702559974249
  0.5050395144314264  0.2408198934103334  0.0004942006156960
  0.2517059035261966  0.7483974235170294  0.2506704415342076
  0.2407658811995292  0.4982346548460776  0.9910704607934059
  0.0005399390198121  0.7424313581289611  0.0011065645201652
  0.7424678786771001  0.7522379989744735  0.2434891542057112
  0.7615957305952276  0.5026738464154625  0.0036522544548556
  0.4961599913534907  0.4973165078782585  0.2517827062738560
  0.2467197157970995  0.2482353857582355  0.7473165188978248
  0.2553821477509907  0.0016119407096873  0.5119718876296273
  0.0001412296036566  0.2484821352950515  0.5011742855200785
  0.2356878432277704  0.7544012449071041  0.7526533091861213
  0.2526463554759353  0.4993994872500452  0.5059995592847633
 -0.0044500028698083  0.7568879012220335  0.5063014154515866
  0.0035237862074778  0.4987424357298111  0.7557060718164353
  0.7545707537108562  0.7530450278192833  0.7552038364827218
  0.7449526428903595  0.4950459099748939  0.5042965446259478
  0.4936927968171865  0.7609246571003950  0.4934118185329119
  0.4982568366676906  0.5016799807236351  0.7446572081369990
  0.5229525998959059  0.0111975472403370  0.9781452373287607
  0.0008832182541125  0.5069685887196834  0.9803347534177447
  0.4960309690777833  0.7304143793234311  0.2602299433708194
  0.2172788584459113  0.0176945503224006  0.7387051766568572
  0.4841092358855877  0.9845146635864563  0.5197965803879094
  0.7455124544186412  0.9661740656470056  0.7824653329589227
  0.0043543634661019  0.7681334858700087  0.2485623608864958
  0.7395840784907030  0.5102038607275091  0.2562838376085775
  0.0100895889533086  0.0049618653245635  0.5026960785897568
  0.5013095094091161  0.5168320449925671  0.4951651931511745
  0.7548233021478902  0.5155791797042034  0.7524721845456975
  0.7451813697067480  0.7560872950800372  0.4905474742110597
 
  0.00000000E+00  0.00000000E+00  0.00000000E+00
  0.00000000E+00  0.00000000E+00  0.00000000E+00
  0.00000000E+00  0.00000000E+00  0.00000000E+00
  0.00000000E+00  0.00000000E+00  0.00000000E+00
  0.00000000E+00  0.00000000E+00  0.00000000E+00
  0.00000000E+00  0.00000000E+00  0.00000000E+00
  0.00000000E+00  0.00000000E+00  0.00000000E+00
  0.00000000E+00  0.00000000E+00  0.00000000E+00
  0.00000000E+00  0.00000000E+00  0.00000000E+00
  0.00000000E+00  0.00000000E+00  0.00000000E+00
  0.00000000E+00  0.00000000E+00  0.00000000E+00
  0.00000000E+00  0.00000000E+00  0.00000000E+00
  0.00000000E+00  0.00000000E+00  0.00000000E+00
  0.00000000E+00  0.00000000E+00  0.00000000E+00
  0.00000000E+00  0.00000000E+00  0.00000000E+00
  0.00000000E+00  0.00000000E+00  0.00000000E+00
  0.00000000E+00  0.00000000E+00  0.00000000E+00
  0.00000000E+00  0.00000000E+00  0.00000000E+00
  0.00000000E+00  0.00000000E+00  0.00000000E+00
  0.00000000E+00  0.00000000E+00  0.00000000E+00
  0.00000000E+00  0.00000000E+00  0.00000000E+00
  0.00000000E+00  0.00000000E+00  0.00000000E+00
  0.00000000E+00  0.00000000E+00  0.00000000E+00
  0.00000000E+00  0.00000000E+00  0.00000000E+00
  0.00000000E+00  0.00000000E+00  0.00000000E+00
  0.00000000E+00  0.00000000E+00  0.00000000E+00
  0.00000000E+00  0.00000000E+00  0.00000000E+00
  0.00000000E+00  0.00000000E+00  0.00000000E+00
  0.00000000E+00  0.00000000E+00  0.00000000E+00
  0.00000000E+00  0.00000000E+00  0.00000000E+00
  0.00000000E+00  0.00000000E+00  0.00000000E+00
  0.00000000E+00  0.00000000E+00  0.00000000E+00
  0.00000000E+00  0.00000000E+00  0.00000000E+00
  0.00000000E+00  0.00000000E+00  0.00000000E+00
  0.00000000E+00  0.00000000E+00  0.00000000E+00
  0.00000000E+00  0.00000000E+00  0.00000000E+00
  0.00000000E+00  0.00000000E+00  0.00000000E+00
  0.00000000E+00  0.00000000E+00  0.00000000E+00
  0.00000000E+00  0.00000000E+00  0.00000000E+00
  0.00000000E+00  0.00000000E+00  0.00000000E+00
  0.00000000E+00  0.00000000E+00  0.00000000E+00
  0.00000000E+00  0.00000000E+00  0.00000000E+00
  0.00000000E+00  0.00000000E+00  0.00000000E+00
  0.00000000E+00  0.00000000E+00  0.00000000E+00
  0.00000000E+00  0.00000000E+00  0.00000000E+00
  0.00000000E+00  0.00000000E+00  0.00000000E+00
  0.00000000E+00  0.00000000E+00  0.00000000E+00
  0.00000000E+00  0.00000000E+00  0.00000000E+00
  0.00000000E+00  0.00000000E+00  0.00000000E+00
  0.00000000E+00  0.00000000E+00  0.00000000E+00
  0.00000000E+00  0.00000000E+00  0.00000000E+00
  0.00000000E+00  0.00000000E+00  0.00000000E+00
  0.00000000E+00  0.00000000E+00  0.00000000E+00
  0.00000000E+00  0.00000000E+00  0.00000000E+00
  0.00000000E+00  0.00000000E+00  0.00000000E+00
  0.00000000E+00  0.00000000E+00  0.00000000E+00
  0.00000000E+00  0.00000000E+00  0.00000000E+00
  0.00000000E+00  0.00000000E+00  0.00000000E+00
  0.00000000E+00  0.00000000E+00  0.00000000E+00
  0.00000000E+00  0.00000000E+00  0.00000000E+00
  0.00000000E+00  0.00000000E+00  0.00000000E+00
  0.00000000E+00  0.00000000E+00  0.00000000E+00
  0.00000000E+00  0.00000000E+00  0.00000000E+00
  0.00000000E+00  0.00000000E+00  0.00000000E+00
