119-ZrNbCrMoW                           
   1.00000000000000     
     8.8210654624202665   -0.0161215797656900   -0.0129749320573024
    -0.0106586146934096    8.8965491467399804   -0.0278323986514907
     0.0187812553963854   -0.0431337995295835    8.8821524695554572
   Nb   W    Zr   N    C    Cr   Mo
     7     6     7    13    19     6     6
Direct
 -0.0035346764821971  0.9840758612178656  0.9909861579363894
  0.2504265191969063  0.9897907018934644  0.2640296813353983
  0.2510490841215077  0.5125737229551564  0.2422465427353051
  0.5042913215270781  0.4886942814202385  0.9931835467702325
  0.4919913489400864  0.2536385927989617  0.7474253963747179
  0.0036358634748596  0.4990298511935267  0.5009384015158667
  0.5094835020650418  0.7546763744235564  0.7388253746098549
  0.9929224749001659  0.2324996308489202  0.2710064433974192
  0.7631657752642522  0.7444587512165877 -0.0022700709751282
  0.0164268497098324  0.2605784319321676  0.7379096800706585
  0.7557787158571850  0.2654641126220421  0.4948552435570253
  0.0016165310182479  0.7433518905053090  0.7557472293443254
  0.2536107454786982  0.5048413533179511  0.7579027168786803
  0.2430769066293071  0.2440392519658429 -0.0011202955456636
  0.5007307174179016  0.2479318633616774  0.2492711466766990
  0.7358723206393910  0.9900682785767483  0.2655459203718376
  0.7541141725027852  0.2472256537239472  0.9854394480532335
  0.2691083383458723  0.7596189303581116  0.0008458700980110
  0.2554394392717064  0.2504027065827032  0.5035966301008119
  0.2478655885917662  0.7509061823896225  0.5039161426961064
  0.2427343379160079  0.2489943777153105  0.2524174113454596
  0.2463302999361864  0.0006809581446273  0.0043540958597960
 -0.0021256659953894  0.2345342476620265  0.0019007582221557
  0.7547377940895144  0.2461471565589476  0.2500707006589966
  0.7421849444319327  0.9874757021006852 -0.0030931019734620
  0.4904077009954378  0.9939102588036431  0.2761943889069765
  0.0009231271731537  0.4779607386720954  0.2560789467996525
  0.5159219299882150  0.7592497519176687 -0.0119942996067701
  0.9804922743907212  0.0141741995113092  0.7429401203625251
  0.7565581786122796  0.2592266692886079  0.7383855050244088
  0.7548892057100852  0.0214625229728773  0.5064953942887019
  0.5114887186696210  0.2497989782000268  0.5025427798177788
  0.5338009733848990  0.0028520906889608  0.7357991377351497
 -0.0038050496106883  0.0000789672524040  0.2452281566946972
  0.5005987243717741  0.2435982262318490 -0.0055503709887542
  0.2583532191597467  0.7510671468801080  0.2526880042519402
  0.2424442755074591  0.5031887917683020  0.9967377374138849
  0.0059747977468864  0.7436378984878478  0.0059291279810759
  0.7391129070818381  0.7382948796301165  0.2416922264584307
  0.7627352933510902  0.5026578724130697  0.0081655701302796
  0.4932124208587417  0.5100960444623995  0.2429452930793873
  0.2509476143875602  0.2426298247254404  0.7506950704168253
  0.2534113475102351  0.9986071272875099  0.5204054964501468
 -0.0013572904831026  0.2493829648822613  0.5051500465983353
  0.2527838965127204  0.7562994299518259  0.7524496558899790
  0.2510702112421391  0.5012160274579885  0.5003686930945566
  0.9900217517406625  0.7544029355361892  0.5057209083498643
  0.0004338003445332  0.5020091820656385  0.7566562231753807
  0.7580906142650861  0.7548968258344165  0.7417612143066993
  0.7489408895065266  0.4971648524527410  0.5040244043309204
  0.5076854661832170  0.7658257158166631  0.4937651790241553
  0.5001902499316367  0.5028615986881265  0.7436661277477001
  0.5216916598774266  0.0215438897588278  0.9481178560227606
  0.9903704437966677  0.5324836234255096  0.9740588461458475
  0.5091182165097424  0.7320448622752983  0.2834260187002001
  0.2043909438863545 -0.0115355216357380  0.7396202357680653
  0.4723176545757937  0.9960073757816893  0.5194186044574932
  0.7466623944739050  0.9655398092849451  0.7720646805634732
 -0.0080380443234624  0.7688056564663159  0.2531286295170412
  0.7254059665617005  0.5065050360919612  0.2530123647381444
  0.0104765535627069 -0.0004419747346962  0.4959878418701305
  0.4953149388839430  0.5116788207861519  0.4903639941394745
  0.7461232432840025  0.5161940113936575  0.7640555318580406
  0.7499059075300778  0.7229237747399944  0.4918737243706893
 
  0.00000000E+00  0.00000000E+00  0.00000000E+00
  0.00000000E+00  0.00000000E+00  0.00000000E+00
  0.00000000E+00  0.00000000E+00  0.00000000E+00
  0.00000000E+00  0.00000000E+00  0.00000000E+00
  0.00000000E+00  0.00000000E+00  0.00000000E+00
  0.00000000E+00  0.00000000E+00  0.00000000E+00
  0.00000000E+00  0.00000000E+00  0.00000000E+00
  0.00000000E+00  0.00000000E+00  0.00000000E+00
  0.00000000E+00  0.00000000E+00  0.00000000E+00
  0.00000000E+00  0.00000000E+00  0.00000000E+00
  0.00000000E+00  0.00000000E+00  0.00000000E+00
  0.00000000E+00  0.00000000E+00  0.00000000E+00
  0.00000000E+00  0.00000000E+00  0.00000000E+00
  0.00000000E+00  0.00000000E+00  0.00000000E+00
  0.00000000E+00  0.00000000E+00  0.00000000E+00
  0.00000000E+00  0.00000000E+00  0.00000000E+00
  0.00000000E+00  0.00000000E+00  0.00000000E+00
  0.00000000E+00  0.00000000E+00  0.00000000E+00
  0.00000000E+00  0.00000000E+00  0.00000000E+00
  0.00000000E+00  0.00000000E+00  0.00000000E+00
  0.00000000E+00  0.00000000E+00  0.00000000E+00
  0.00000000E+00  0.00000000E+00  0.00000000E+00
  0.00000000E+00  0.00000000E+00  0.00000000E+00
  0.00000000E+00  0.00000000E+00  0.00000000E+00
  0.00000000E+00  0.00000000E+00  0.00000000E+00
  0.00000000E+00  0.00000000E+00  0.00000000E+00
  0.00000000E+00  0.00000000E+00  0.00000000E+00
  0.00000000E+00  0.00000000E+00  0.00000000E+00
  0.00000000E+00  0.00000000E+00  0.00000000E+00
  0.00000000E+00  0.00000000E+00  0.00000000E+00
  0.00000000E+00  0.00000000E+00  0.00000000E+00
  0.00000000E+00  0.00000000E+00  0.00000000E+00
  0.00000000E+00  0.00000000E+00  0.00000000E+00
  0.00000000E+00  0.00000000E+00  0.00000000E+00
  0.00000000E+00  0.00000000E+00  0.00000000E+00
  0.00000000E+00  0.00000000E+00  0.00000000E+00
  0.00000000E+00  0.00000000E+00  0.00000000E+00
  0.00000000E+00  0.00000000E+00  0.00000000E+00
  0.00000000E+00  0.00000000E+00  0.00000000E+00
  0.00000000E+00  0.00000000E+00  0.00000000E+00
  0.00000000E+00  0.00000000E+00  0.00000000E+00
  0.00000000E+00  0.00000000E+00  0.00000000E+00
  0.00000000E+00  0.00000000E+00  0.00000000E+00
  0.00000000E+00  0.00000000E+00  0.00000000E+00
  0.00000000E+00  0.00000000E+00  0.00000000E+00
  0.00000000E+00  0.00000000E+00  0.00000000E+00
  0.00000000E+00  0.00000000E+00  0.00000000E+00
  0.00000000E+00  0.00000000E+00  0.00000000E+00
  0.00000000E+00  0.00000000E+00  0.00000000E+00
  0.00000000E+00  0.00000000E+00  0.00000000E+00
  0.00000000E+00  0.00000000E+00  0.00000000E+00
  0.00000000E+00  0.00000000E+00  0.00000000E+00
  0.00000000E+00  0.00000000E+00  0.00000000E+00
  0.00000000E+00  0.00000000E+00  0.00000000E+00
  0.00000000E+00  0.00000000E+00  0.00000000E+00
  0.00000000E+00  0.00000000E+00  0.00000000E+00
  0.00000000E+00  0.00000000E+00  0.00000000E+00
  0.00000000E+00  0.00000000E+00  0.00000000E+00
  0.00000000E+00  0.00000000E+00  0.00000000E+00
  0.00000000E+00  0.00000000E+00  0.00000000E+00
  0.00000000E+00  0.00000000E+00  0.00000000E+00
  0.00000000E+00  0.00000000E+00  0.00000000E+00
  0.00000000E+00  0.00000000E+00  0.00000000E+00
  0.00000000E+00  0.00000000E+00  0.00000000E+00
