12-TiZrVNbMo                            
   1.00000000000000     
     8.8625620394482123   -0.0074219056883249   -0.0029014325455565
    -0.0074193446428173    8.8705740505174493   -0.0119790609157105
    -0.0029091857687308   -0.0119962084314189    8.8370404232890625
   Ti   Nb   V    N    C    Zr   Mo
     7     6     6    13    19     7     6
Direct
 -0.0000018101493105 -0.0006423407348803  0.0098388388974155
  0.2420022812336947  0.0032028810903343  0.2488476672223027
  0.2573960967449687  0.4943780947280976  0.2497111941869411
  0.5007957169232528  0.4948999261640674  0.0007004577232958
  0.4976189209085705  0.2589125403628702  0.7545458222063645
  0.0020216508303098  0.4971413190152055  0.4980221219049412
  0.5021953431284306  0.7404686751506074  0.7502494686040412
  0.0010434820828231  0.2409305605737133  0.2561676929709467
  0.7574913667311594  0.7445912203121634  0.0015609137879106
  0.0044939716122288  0.2573210099730933  0.7434612067644866
  0.7562327156511160  0.2603689335457477  0.4928850140177027
 -0.0016967426558363  0.7420875312782880  0.7509777903337609
  0.2555388866884186  0.4967303136102086  0.7516390397799471
  0.2612268214200062  0.2606856756441048 -0.0050912896839505
  0.5030209108951235  0.2590961927549132  0.2434534980755286
  0.7596161204633998 -0.0042732673922218  0.2477208573017970
  0.7382914968519849  0.2574050714272473  0.0078305739436094
  0.2373950506398519  0.7398549062594586  0.0017543431169316
  0.2390747247294296  0.2513388512172702  0.5051538064562153
  0.2525861019399244  0.2493321289002878  0.2503328104609930
  0.2429148110360023  0.0014302657882863  0.0095051926795773
 -0.0009758990602985  0.2411238373712425  0.0006844254113959
  0.7455752636019571  0.2438453828726163  0.2459512967341956
  0.7576337126619699  0.0044562492889523  0.0074387603943394
  0.4999741743485869  0.0094257536650874  0.2485024550211559
  0.0059832771387624  0.4959633130697197  0.2582523638822562
  0.4988410846037670  0.7441714298981340 -0.0081107598363880
 -0.0007154304860808  0.0013007779134151  0.7575237351308253
  0.7454516949149647  0.2514591322983722  0.7522999203735939
  0.7527717336718615  0.0025516594945429  0.4920005024089410
  0.4978419582456634  0.2536940216712711  0.4990119034885164
  0.5018053354991802  0.0016641043886707  0.7516740147805208
 -0.0018277425594766 -0.0012186748232441  0.2470465787159425
  0.5002815326525217  0.2591632833041276  0.0029836205387341
  0.2432577833714327  0.7496564626457777  0.2378706214800678
  0.2579946376532877  0.5006331642502739  0.0051062175284522
  0.0055071970487117  0.7576270231426063  0.0004869077944828
  0.7552472271896273  0.7533477336556922  0.2522200636578925
  0.7419454977728963  0.4929003122176198  0.0006487538050886
  0.4968673077188054  0.4875541478285894  0.2467603915491987
  0.2533131854884765  0.2540643571152422  0.7491233856070519
  0.2441680914931651  0.0110637921213043  0.4902423362885141
  0.0053670571092503  0.2546357773516623  0.4996656653981958
  0.2536560435775634  0.7457898203274235  0.7614856952481438
  0.2488209662618357  0.4868299282986018  0.4949294521211082
 -0.0070091265034050  0.7481361181419622  0.4983127123558064
  0.0004024688155515  0.4989724774237744  0.7420763008105526
  0.7447017411186593  0.7446147317971765  0.7494690335728011
  0.7543857846688570  0.5006627099884238  0.4987246968280799
  0.5053891891564212  0.7435020637532028  0.5089769175671728
  0.5009780136801221  0.4994524308109337  0.7526190937708434
  0.4992296171447647  0.0064704235331554  0.0048868394655607
  0.0002507117956691  0.4971035503472566  0.0044898200114723
  0.4993079072309788  0.7437780102548185  0.2470488373278029
  0.2473040878286820  0.0024866975020905  0.7543573573411052
  0.4967342385240494  0.0045358795599798  0.4952653125738717
  0.7522732270782391 -0.0014936843925298  0.7508236960757793
  0.2477627124880112  0.7470820434539267  0.4982177727331713
 -0.0003196599275898  0.7638246287360325  0.2474194225658662
  0.7359964537005965  0.5036463911398938  0.2466325991054198
  0.0062845057773967  0.0073238966963174  0.4872440252386059
  0.5034642468802943  0.5003661701309605  0.4984374612669142
  0.7447284972321966  0.5059669005551932  0.7532555163208156
  0.7500924476865805  0.7366059535309232  0.4986779287954309
 
  0.00000000E+00  0.00000000E+00  0.00000000E+00
  0.00000000E+00  0.00000000E+00  0.00000000E+00
  0.00000000E+00  0.00000000E+00  0.00000000E+00
  0.00000000E+00  0.00000000E+00  0.00000000E+00
  0.00000000E+00  0.00000000E+00  0.00000000E+00
  0.00000000E+00  0.00000000E+00  0.00000000E+00
  0.00000000E+00  0.00000000E+00  0.00000000E+00
  0.00000000E+00  0.00000000E+00  0.00000000E+00
  0.00000000E+00  0.00000000E+00  0.00000000E+00
  0.00000000E+00  0.00000000E+00  0.00000000E+00
  0.00000000E+00  0.00000000E+00  0.00000000E+00
  0.00000000E+00  0.00000000E+00  0.00000000E+00
  0.00000000E+00  0.00000000E+00  0.00000000E+00
  0.00000000E+00  0.00000000E+00  0.00000000E+00
  0.00000000E+00  0.00000000E+00  0.00000000E+00
  0.00000000E+00  0.00000000E+00  0.00000000E+00
  0.00000000E+00  0.00000000E+00  0.00000000E+00
  0.00000000E+00  0.00000000E+00  0.00000000E+00
  0.00000000E+00  0.00000000E+00  0.00000000E+00
  0.00000000E+00  0.00000000E+00  0.00000000E+00
  0.00000000E+00  0.00000000E+00  0.00000000E+00
  0.00000000E+00  0.00000000E+00  0.00000000E+00
  0.00000000E+00  0.00000000E+00  0.00000000E+00
  0.00000000E+00  0.00000000E+00  0.00000000E+00
  0.00000000E+00  0.00000000E+00  0.00000000E+00
  0.00000000E+00  0.00000000E+00  0.00000000E+00
  0.00000000E+00  0.00000000E+00  0.00000000E+00
  0.00000000E+00  0.00000000E+00  0.00000000E+00
  0.00000000E+00  0.00000000E+00  0.00000000E+00
  0.00000000E+00  0.00000000E+00  0.00000000E+00
  0.00000000E+00  0.00000000E+00  0.00000000E+00
  0.00000000E+00  0.00000000E+00  0.00000000E+00
  0.00000000E+00  0.00000000E+00  0.00000000E+00
  0.00000000E+00  0.00000000E+00  0.00000000E+00
  0.00000000E+00  0.00000000E+00  0.00000000E+00
  0.00000000E+00  0.00000000E+00  0.00000000E+00
  0.00000000E+00  0.00000000E+00  0.00000000E+00
  0.00000000E+00  0.00000000E+00  0.00000000E+00
  0.00000000E+00  0.00000000E+00  0.00000000E+00
  0.00000000E+00  0.00000000E+00  0.00000000E+00
  0.00000000E+00  0.00000000E+00  0.00000000E+00
  0.00000000E+00  0.00000000E+00  0.00000000E+00
  0.00000000E+00  0.00000000E+00  0.00000000E+00
  0.00000000E+00  0.00000000E+00  0.00000000E+00
  0.00000000E+00  0.00000000E+00  0.00000000E+00
  0.00000000E+00  0.00000000E+00  0.00000000E+00
  0.00000000E+00  0.00000000E+00  0.00000000E+00
  0.00000000E+00  0.00000000E+00  0.00000000E+00
  0.00000000E+00  0.00000000E+00  0.00000000E+00
  0.00000000E+00  0.00000000E+00  0.00000000E+00
  0.00000000E+00  0.00000000E+00  0.00000000E+00
  0.00000000E+00  0.00000000E+00  0.00000000E+00
  0.00000000E+00  0.00000000E+00  0.00000000E+00
  0.00000000E+00  0.00000000E+00  0.00000000E+00
  0.00000000E+00  0.00000000E+00  0.00000000E+00
  0.00000000E+00  0.00000000E+00  0.00000000E+00
  0.00000000E+00  0.00000000E+00  0.00000000E+00
  0.00000000E+00  0.00000000E+00  0.00000000E+00
  0.00000000E+00  0.00000000E+00  0.00000000E+00
  0.00000000E+00  0.00000000E+00  0.00000000E+00
  0.00000000E+00  0.00000000E+00  0.00000000E+00
  0.00000000E+00  0.00000000E+00  0.00000000E+00
  0.00000000E+00  0.00000000E+00  0.00000000E+00
  0.00000000E+00  0.00000000E+00  0.00000000E+00
