111-HfVNbTaCr                           
   1.00000000000000     
     8.7767595336388791    0.0001459536187924   -0.0205551958433522
     0.0058681385173417    8.7753570510489833   -0.0258219720287850
     0.0109342752912684   -0.0411126223185820    8.7860491168190382
   V    Nb   Hf   N    C    Cr   Ta
     7     6     7    13    19     6     6
Direct
  0.0146802431233026  0.9779206565356603  0.0001335456822553
  0.2503746982759849  0.9836462956402692  0.2675081599172255
  0.2749123292067647  0.5194129921590734  0.2421031636195037
  0.4974428879880220  0.4727737339769066  0.9935519066990524
  0.4787411804327080  0.2478752479706881  0.7537091104068314
  0.9960685811319658  0.4917840492747012  0.5161832027245223
  0.5067931133646625  0.7681071224617703  0.7408510051463074
 -0.0002153201883831  0.2512470295318133  0.2579418922053480
  0.7431465917910915  0.7512180245569318 -0.0029950490469781
  0.0103028358151967  0.2472364648010449  0.7431684094436899
  0.7549609258655781  0.2574376111862397  0.5068910225714577
  0.0016817932389341  0.7559396241145253  0.7547972789524472
  0.2506046993507085  0.5050059074475517  0.7591649072855325
  0.2426642776144160  0.2420567680930722  0.0035569326863801
  0.4956978243005636  0.2418389037948635  0.2478394090613260
  0.7446503627963679  0.9944993939899652  0.2481588220668231
  0.7549968228824839  0.2450601655224805  0.9881060387796239
  0.2723134053260794  0.7604771019799355  0.0020293974656552
  0.2524050461407682  0.2515850806904254  0.4988129310068698
  0.2474635461241082  0.7482162908209173  0.5041791116715814
  0.2494362606259983  0.2489028394088277  0.2509981052293903
  0.2478933704248421  0.0000967185579706  0.0079185419310675
 -0.0006376975473875  0.2357200281763133  0.0019494816530454
  0.7472595722450782  0.2474375072464526  0.2476302882433888
  0.7460656393499813  0.9977837466941434 -0.0067487271367723
  0.4933739660684518  0.9920819895689474  0.2678379152430383
  0.9965249621533218  0.4976156541393674  0.2475773089006498
  0.5094881216833809  0.7732495384326339 -0.0142756401221979
  0.9909973557066938  0.0014724855218027  0.7546680086970411
  0.7497101790326899  0.2491542086105582  0.7454529388267264
  0.7526359893722067 -0.0002242964900315  0.5027794787403206
  0.5027062845521988  0.2522737767937524  0.5029804877549364
  0.5144843746513982  0.0139720890414491  0.7320225385910885
  0.0051847028089261 -0.0027256695569533  0.2460200353794319
  0.4986980130311345  0.2428026226931912 -0.0099811184637910
  0.2586401285253512  0.7487009411285825  0.2528114853805732
  0.2478713029320984  0.5029084049096167  0.0096072202885115
  0.0060428538803758  0.7509844676836075  0.0012886392689602
  0.7438350482862481  0.7462832201022355  0.2502868555372015
  0.7514646034043132  0.5010777665868968 -0.0002817577947765
  0.4972871409457727  0.5067250740198421  0.2445995966537590
  0.2563163263723717  0.2433945678544801  0.7515630369601506
  0.2560718936223740 -0.0019499963651635  0.5095251554975969
  0.0015330196127222  0.2528690191487416  0.5012551990373760
  0.2574142050668856  0.7611608807689442  0.7527842886182858
  0.2473450908886722  0.4998582134783109  0.4951862058138680
 -0.0036510081789516  0.7460182837853508  0.5004381525074342
  0.9984447478973270  0.5002727876982477  0.7544846488408811
  0.7453724033813790  0.7562340049363085  0.7494370642550577
  0.7529305315056412  0.5016912305376346  0.5006507768129135
  0.4999272056320528  0.7565233199882296  0.5053140616981533
  0.5004389577711537  0.5001010259830622  0.7558185846251206
  0.5128943124873819  0.0176447177863883  0.9496257192701900
  0.0042514304696763  0.5327724508072105  0.9793472019623195
  0.5002444886635117  0.7495010062936226  0.2794773499822750
  0.2267033824040370 -0.0052589312369842  0.7418644668684670
  0.4755011353381638  0.9792586009987810  0.4923783332773766
  0.7263242040844917  0.9786463192991692  0.7667584518959661
  0.0014301566452212  0.7455921928145994  0.2484697130612021
  0.7400672067297875  0.5020547278752699  0.2450066593229042
  0.0051121606180831  0.0037574416756879  0.5005853998926767
  0.4987718639225517  0.5050814430677808  0.5043692830518874
  0.7468853086151195  0.5078125884315373  0.7539192716332451
  0.7510233357359271  0.7473322775547537  0.5009082299676231
 
  0.00000000E+00  0.00000000E+00  0.00000000E+00
  0.00000000E+00  0.00000000E+00  0.00000000E+00
  0.00000000E+00  0.00000000E+00  0.00000000E+00
  0.00000000E+00  0.00000000E+00  0.00000000E+00
  0.00000000E+00  0.00000000E+00  0.00000000E+00
  0.00000000E+00  0.00000000E+00  0.00000000E+00
  0.00000000E+00  0.00000000E+00  0.00000000E+00
  0.00000000E+00  0.00000000E+00  0.00000000E+00
  0.00000000E+00  0.00000000E+00  0.00000000E+00
  0.00000000E+00  0.00000000E+00  0.00000000E+00
  0.00000000E+00  0.00000000E+00  0.00000000E+00
  0.00000000E+00  0.00000000E+00  0.00000000E+00
  0.00000000E+00  0.00000000E+00  0.00000000E+00
  0.00000000E+00  0.00000000E+00  0.00000000E+00
  0.00000000E+00  0.00000000E+00  0.00000000E+00
  0.00000000E+00  0.00000000E+00  0.00000000E+00
  0.00000000E+00  0.00000000E+00  0.00000000E+00
  0.00000000E+00  0.00000000E+00  0.00000000E+00
  0.00000000E+00  0.00000000E+00  0.00000000E+00
  0.00000000E+00  0.00000000E+00  0.00000000E+00
  0.00000000E+00  0.00000000E+00  0.00000000E+00
  0.00000000E+00  0.00000000E+00  0.00000000E+00
  0.00000000E+00  0.00000000E+00  0.00000000E+00
  0.00000000E+00  0.00000000E+00  0.00000000E+00
  0.00000000E+00  0.00000000E+00  0.00000000E+00
  0.00000000E+00  0.00000000E+00  0.00000000E+00
  0.00000000E+00  0.00000000E+00  0.00000000E+00
  0.00000000E+00  0.00000000E+00  0.00000000E+00
  0.00000000E+00  0.00000000E+00  0.00000000E+00
  0.00000000E+00  0.00000000E+00  0.00000000E+00
  0.00000000E+00  0.00000000E+00  0.00000000E+00
  0.00000000E+00  0.00000000E+00  0.00000000E+00
  0.00000000E+00  0.00000000E+00  0.00000000E+00
  0.00000000E+00  0.00000000E+00  0.00000000E+00
  0.00000000E+00  0.00000000E+00  0.00000000E+00
  0.00000000E+00  0.00000000E+00  0.00000000E+00
  0.00000000E+00  0.00000000E+00  0.00000000E+00
  0.00000000E+00  0.00000000E+00  0.00000000E+00
  0.00000000E+00  0.00000000E+00  0.00000000E+00
  0.00000000E+00  0.00000000E+00  0.00000000E+00
  0.00000000E+00  0.00000000E+00  0.00000000E+00
  0.00000000E+00  0.00000000E+00  0.00000000E+00
  0.00000000E+00  0.00000000E+00  0.00000000E+00
  0.00000000E+00  0.00000000E+00  0.00000000E+00
  0.00000000E+00  0.00000000E+00  0.00000000E+00
  0.00000000E+00  0.00000000E+00  0.00000000E+00
  0.00000000E+00  0.00000000E+00  0.00000000E+00
  0.00000000E+00  0.00000000E+00  0.00000000E+00
  0.00000000E+00  0.00000000E+00  0.00000000E+00
  0.00000000E+00  0.00000000E+00  0.00000000E+00
  0.00000000E+00  0.00000000E+00  0.00000000E+00
  0.00000000E+00  0.00000000E+00  0.00000000E+00
  0.00000000E+00  0.00000000E+00  0.00000000E+00
  0.00000000E+00  0.00000000E+00  0.00000000E+00
  0.00000000E+00  0.00000000E+00  0.00000000E+00
  0.00000000E+00  0.00000000E+00  0.00000000E+00
  0.00000000E+00  0.00000000E+00  0.00000000E+00
  0.00000000E+00  0.00000000E+00  0.00000000E+00
  0.00000000E+00  0.00000000E+00  0.00000000E+00
  0.00000000E+00  0.00000000E+00  0.00000000E+00
  0.00000000E+00  0.00000000E+00  0.00000000E+00
  0.00000000E+00  0.00000000E+00  0.00000000E+00
  0.00000000E+00  0.00000000E+00  0.00000000E+00
  0.00000000E+00  0.00000000E+00  0.00000000E+00
