Cr
1.0
        2.8845999241         0.0000000000         0.0000000000
        0.0000000000         2.8845999241         0.0000000000
        0.0000000000         0.0000000000         2.8845999241
   Cr
    2
Direct
     0.000000000         0.000000000         0.000000000
     0.500000000         0.500000000         0.500000000
