118-ZrVCrMoW                            
   1.00000000000000     
     8.7132008103105836    0.0013967324308479   -0.0182375323604625
     0.0069814567584755    8.8185410849939885   -0.0195920133882933
     0.0129802316113786   -0.0351005456604839    8.7238428283179328
   V    W    Zr   N    C    Cr   Mo
     7     6     7    13    19     6     6
Direct
  0.0022530210750075  0.9742964549101757  0.9766147535719011
  0.2508198133993244  0.9848218875652035  0.2717971760390291
  0.2656749352289969  0.5235213715351030  0.2397156480450841
  0.4978225132102846  0.4681682764987412  0.9933969333512641
  0.4836853724350940  0.2594212611589351  0.7529218191368404
  0.0127788873400413  0.5002976454259801  0.4632532666670961
  0.5148249879327322  0.7721689682573434  0.7378196912876837
  0.9996396124891550  0.2232496447989954  0.2660171415925112
  0.7589386396101451  0.7476976767278608  0.9986133827777016
  0.0121816066000136  0.2777849593330556  0.7371078793847339
  0.7529861059510765  0.2727332200078819  0.5091934863884017
  0.9960998480248042  0.7334941548312542  0.7533843486235443
  0.2618764590335855  0.5077904671063290  0.7648057789559451
  0.2405771142487236  0.2397562412116663  0.0022258591267884
  0.4967460172667948  0.2451103995411458  0.2497826195196725
  0.7370281153839850  0.9905489785910416  0.2657984626280107
  0.7555968630267671  0.2435041319958493  0.9870254060295862
  0.2787872442711425  0.7608435476072861  0.0038443825140300
  0.2542493652993388  0.2524373273214573  0.5013490528887720
  0.2479510600276084  0.7484586608474623  0.5060438645270501
  0.2430427823434287  0.2399555049043324  0.2518335222563026
  0.2442410287878422  0.9979830493039114  0.9940771687549829
  0.9975068216459213  0.2231882366646085  0.9995662980850021
  0.7563473149479877  0.2486012595609699  0.2532873879033554
  0.7474539716229317  0.9907467357192212  0.9912932599658241
  0.4864890905008996  0.9890525996258281  0.2728867506930636
  0.0062911763546976  0.4858154790343295  0.2449641377873615
  0.5204471286159102  0.7794897367897624  0.9793804455139022
  0.9846059435323085  0.0160092407396340  0.7527594167173831
  0.7511878011913538  0.2507577534920095  0.7402809979010441
  0.7562552119832237  0.0126527497970043  0.5134505817130526
  0.5120340417743101  0.2489416310466872  0.5108235584487005
  0.5173639520578567  0.0115122462502499  0.7326016146861775
  0.0039311176136471  0.9952142048479248  0.2447558832405589
  0.4991810925644865  0.2407506063305113  0.9888836705137651
  0.2603643511277366  0.7501033207050133  0.2547398029589296
  0.2500463915105769  0.5026247261342223  0.0050259569158924
  0.0074609539335872  0.7494229214175933  0.0036733110201063
  0.7384703670352466  0.7419619260440355  0.2450185802288974
  0.7525904328916245  0.5049490786530773  0.9917714768126125
  0.4933074197625633  0.5106306923568148  0.2377074755362358
  0.2525691337751185  0.2489567790162916  0.7514509137194011
  0.2538322362039079  0.9981161244638647  0.5204749599575527
  0.9982177288766058  0.2581405176358978  0.5018974871546468
  0.2568722566735991  0.7559876084592149  0.7553776201588898
  0.2471410184635461  0.5013724078632167  0.4948828724040637
  0.9926954757277903  0.7469333065073176  0.5038974401088218
  0.9992173417823116  0.5032936943620953  0.7626397104036220
  0.7513477012644499  0.7570024479006358  0.7447228916269749
  0.7602421902117450  0.4980867823803459  0.4936895565989444
  0.5079945993658849  0.7620847538800828  0.5025586571518075
  0.4949508251022959  0.5100514035878447  0.7551090578049942
  0.5150790360946523  0.0166248874833854  0.9469863960075173
  0.9965511633503735  0.5359380537225932  0.0306419722645859
  0.5046544794691246  0.7364828559722202  0.2861175340607222
  0.2058590600403926  0.9772086843246549  0.7534995818920203
  0.4698567392168692  0.9903491644397467  0.5127245326442187
  0.7316656379112043  0.9749741536307015  0.7599021469584917
  0.9979052453510948  0.7683240965401235  0.2543298235133781
  0.7279563545820618  0.5126647191444328  0.2295241743788954
  0.0117956269066418  0.0007121725791310  0.5048660393929676
  0.4971394760094945  0.5060349362346086  0.4927193364831819
  0.7246786707448730  0.5019180716739554  0.7514719478968713
  0.7526424052231966  0.7222731545071300  0.5010232327086392
 
  0.00000000E+00  0.00000000E+00  0.00000000E+00
  0.00000000E+00  0.00000000E+00  0.00000000E+00
  0.00000000E+00  0.00000000E+00  0.00000000E+00
  0.00000000E+00  0.00000000E+00  0.00000000E+00
  0.00000000E+00  0.00000000E+00  0.00000000E+00
  0.00000000E+00  0.00000000E+00  0.00000000E+00
  0.00000000E+00  0.00000000E+00  0.00000000E+00
  0.00000000E+00  0.00000000E+00  0.00000000E+00
  0.00000000E+00  0.00000000E+00  0.00000000E+00
  0.00000000E+00  0.00000000E+00  0.00000000E+00
  0.00000000E+00  0.00000000E+00  0.00000000E+00
  0.00000000E+00  0.00000000E+00  0.00000000E+00
  0.00000000E+00  0.00000000E+00  0.00000000E+00
  0.00000000E+00  0.00000000E+00  0.00000000E+00
  0.00000000E+00  0.00000000E+00  0.00000000E+00
  0.00000000E+00  0.00000000E+00  0.00000000E+00
  0.00000000E+00  0.00000000E+00  0.00000000E+00
  0.00000000E+00  0.00000000E+00  0.00000000E+00
  0.00000000E+00  0.00000000E+00  0.00000000E+00
  0.00000000E+00  0.00000000E+00  0.00000000E+00
  0.00000000E+00  0.00000000E+00  0.00000000E+00
  0.00000000E+00  0.00000000E+00  0.00000000E+00
  0.00000000E+00  0.00000000E+00  0.00000000E+00
  0.00000000E+00  0.00000000E+00  0.00000000E+00
  0.00000000E+00  0.00000000E+00  0.00000000E+00
  0.00000000E+00  0.00000000E+00  0.00000000E+00
  0.00000000E+00  0.00000000E+00  0.00000000E+00
  0.00000000E+00  0.00000000E+00  0.00000000E+00
  0.00000000E+00  0.00000000E+00  0.00000000E+00
  0.00000000E+00  0.00000000E+00  0.00000000E+00
  0.00000000E+00  0.00000000E+00  0.00000000E+00
  0.00000000E+00  0.00000000E+00  0.00000000E+00
  0.00000000E+00  0.00000000E+00  0.00000000E+00
  0.00000000E+00  0.00000000E+00  0.00000000E+00
  0.00000000E+00  0.00000000E+00  0.00000000E+00
  0.00000000E+00  0.00000000E+00  0.00000000E+00
  0.00000000E+00  0.00000000E+00  0.00000000E+00
  0.00000000E+00  0.00000000E+00  0.00000000E+00
  0.00000000E+00  0.00000000E+00  0.00000000E+00
  0.00000000E+00  0.00000000E+00  0.00000000E+00
  0.00000000E+00  0.00000000E+00  0.00000000E+00
  0.00000000E+00  0.00000000E+00  0.00000000E+00
  0.00000000E+00  0.00000000E+00  0.00000000E+00
  0.00000000E+00  0.00000000E+00  0.00000000E+00
  0.00000000E+00  0.00000000E+00  0.00000000E+00
  0.00000000E+00  0.00000000E+00  0.00000000E+00
  0.00000000E+00  0.00000000E+00  0.00000000E+00
  0.00000000E+00  0.00000000E+00  0.00000000E+00
  0.00000000E+00  0.00000000E+00  0.00000000E+00
  0.00000000E+00  0.00000000E+00  0.00000000E+00
  0.00000000E+00  0.00000000E+00  0.00000000E+00
  0.00000000E+00  0.00000000E+00  0.00000000E+00
  0.00000000E+00  0.00000000E+00  0.00000000E+00
  0.00000000E+00  0.00000000E+00  0.00000000E+00
  0.00000000E+00  0.00000000E+00  0.00000000E+00
  0.00000000E+00  0.00000000E+00  0.00000000E+00
  0.00000000E+00  0.00000000E+00  0.00000000E+00
  0.00000000E+00  0.00000000E+00  0.00000000E+00
  0.00000000E+00  0.00000000E+00  0.00000000E+00
  0.00000000E+00  0.00000000E+00  0.00000000E+00
  0.00000000E+00  0.00000000E+00  0.00000000E+00
  0.00000000E+00  0.00000000E+00  0.00000000E+00
  0.00000000E+00  0.00000000E+00  0.00000000E+00
  0.00000000E+00  0.00000000E+00  0.00000000E+00
