118-ZrVCrMoW                            
   1.00000000000000     
     8.7223282742050330    0.0022455835483299   -0.0180915380758536
     0.0078450155734689    8.8304512932319188   -0.0198053818282053
     0.0131548941626751   -0.0353389880425787    8.7326238014932063
   V    W    Zr   N    C    Cr   Mo
     7     6     7    13    19     6     6
Direct
  0.0020561589267751  0.9741043476281449  0.9763256994820284
  0.2507618766121213  0.9847808521926467  0.2720047075735323
  0.2659115266102998  0.5239408117793127  0.2396518902315214
  0.4978342383999013  0.4676577180034749  0.9934113175998056
  0.4834591716269429  0.2593978042179501  0.7527804489240112
  0.0129586557772671  0.5003864000203248  0.4630392170984058
  0.5150194373205881  0.7725109751786384  0.7378699286706543
 -0.0004094190234324  0.2229584500184818  0.2661891714386149
  0.7588529749219656  0.7476726926925948 -0.0012650688531419
  0.0123993246834758  0.2781192273209719  0.7368384629726553
  0.7529250282454395  0.2730221269127218  0.5091809681609459
 -0.0040410042806932  0.7331177304124303  0.7533363148194415
  0.2621147955454603  0.5079278873193064  0.7651362508097709
  0.2404548034650367  0.2394641548686530  0.0022430966809806
  0.4967498714181364  0.2449938710286496  0.2497291013077360
  0.7370471521989297  0.9905011431151578  0.2661033086448462
  0.7557241814315190  0.2433880142486120  0.9868580463282283
  0.2788524984391702  0.7610088937408966  0.0038703611712269
  0.2542584179590193  0.2525893712901754  0.5012476443107975
  0.2478811068342552  0.7483873974902659  0.5061365857736397
  0.2430447981637951  0.2395513832631778  0.2518452102827723
  0.2434633457734170 -0.0021438831516688 -0.0058958154010981
 -0.0024773452560955  0.2231291306331518 -0.0003366462417523
  0.7563375435730866  0.2483850395037533  0.2531978869875448
  0.7476053199826765  0.9906486475172540 -0.0087669443507264
  0.4864786876492596  0.9890367479396756  0.2735752262309240
  0.0062754956262040  0.4861802675382869  0.2451521728449692
  0.5204165928338164  0.7801725264111167 -0.0210521713228757
  0.9846463588805824  0.0161098896203784  0.7527236458761278
  0.7514110345536305  0.2515471845584861  0.7401893949776976
  0.7567184748352329  0.0129125648887606  0.5133389338306847
  0.5119662913757408  0.2494346581422634  0.5106656506855186
  0.5182348053790135  0.0114646155954614  0.7320565392673567
  0.0038129992495283 -0.0047774338993823  0.2451536971589135
  0.4992238559038457  0.2403399123893674 -0.0112402538405923
  0.2602754114482366  0.7501199768425630  0.2547825918261152
  0.2501407525039879  0.5026429728459721  0.0050370514617254
  0.0072161292280666  0.7493877540448538  0.0036922871342159
  0.7383518280121604  0.7419299587194458  0.2450569106275708
  0.7523973381616587  0.5049619992032690 -0.0081213693004402
  0.4933446837622241  0.5106012975178740  0.2376063637977371
  0.2524889265691063  0.2494402796574262  0.7514167458199448
  0.2537154513314272  0.9980978276468423  0.5206358287909616
 -0.0017835146440443  0.2582121492368103  0.5018279967057018
  0.2566041010319853  0.7557575794304215  0.7554735828222623
  0.2472805197861056  0.5014219788003718  0.4947268327378934
  0.9926420780312746  0.7470322144549708  0.5039346630434716
  0.9993686296394586  0.5032632308888245  0.7624574129244961
  0.7513462081397342  0.7568077655630336  0.7447804155974573
  0.7601401689416608  0.4981104341011236  0.4937853221009685
  0.5079697094364326  0.7618922440770262  0.5026683476509198
  0.4949323511495321  0.5098483635341738  0.7551511555441217
  0.5159272268895003  0.0165243037387749  0.9460951140220912
 -0.0038127209213893  0.5361052460590167  0.0312474424221032
  0.5046571083922834  0.7365681471495089  0.2863991091407506
  0.2055010035737601 -0.0233706728488809  0.7536631096003902
  0.4694319089834302  0.9900140812633674  0.5126310619117744
  0.7323592008397234  0.9745442808712658  0.7595620481549602
 -0.0022472400102224  0.7685475187907574  0.2545123060702399
  0.7277181318706003  0.5128571817412008  0.2295116928388111
  0.0119529601835316  0.0007053621917197  0.5050650160593982
  0.4970115354846005  0.5060002056718563  0.4923786661341467
  0.7244248952960927  0.5020720097949262  0.7517000543213188
  0.7526765372531506  0.7219829395819994  0.5010283959077472
 
  0.00000000E+00  0.00000000E+00  0.00000000E+00
  0.00000000E+00  0.00000000E+00  0.00000000E+00
  0.00000000E+00  0.00000000E+00  0.00000000E+00
  0.00000000E+00  0.00000000E+00  0.00000000E+00
  0.00000000E+00  0.00000000E+00  0.00000000E+00
  0.00000000E+00  0.00000000E+00  0.00000000E+00
  0.00000000E+00  0.00000000E+00  0.00000000E+00
  0.00000000E+00  0.00000000E+00  0.00000000E+00
  0.00000000E+00  0.00000000E+00  0.00000000E+00
  0.00000000E+00  0.00000000E+00  0.00000000E+00
  0.00000000E+00  0.00000000E+00  0.00000000E+00
  0.00000000E+00  0.00000000E+00  0.00000000E+00
  0.00000000E+00  0.00000000E+00  0.00000000E+00
  0.00000000E+00  0.00000000E+00  0.00000000E+00
  0.00000000E+00  0.00000000E+00  0.00000000E+00
  0.00000000E+00  0.00000000E+00  0.00000000E+00
  0.00000000E+00  0.00000000E+00  0.00000000E+00
  0.00000000E+00  0.00000000E+00  0.00000000E+00
  0.00000000E+00  0.00000000E+00  0.00000000E+00
  0.00000000E+00  0.00000000E+00  0.00000000E+00
  0.00000000E+00  0.00000000E+00  0.00000000E+00
  0.00000000E+00  0.00000000E+00  0.00000000E+00
  0.00000000E+00  0.00000000E+00  0.00000000E+00
  0.00000000E+00  0.00000000E+00  0.00000000E+00
  0.00000000E+00  0.00000000E+00  0.00000000E+00
  0.00000000E+00  0.00000000E+00  0.00000000E+00
  0.00000000E+00  0.00000000E+00  0.00000000E+00
  0.00000000E+00  0.00000000E+00  0.00000000E+00
  0.00000000E+00  0.00000000E+00  0.00000000E+00
  0.00000000E+00  0.00000000E+00  0.00000000E+00
  0.00000000E+00  0.00000000E+00  0.00000000E+00
  0.00000000E+00  0.00000000E+00  0.00000000E+00
  0.00000000E+00  0.00000000E+00  0.00000000E+00
  0.00000000E+00  0.00000000E+00  0.00000000E+00
  0.00000000E+00  0.00000000E+00  0.00000000E+00
  0.00000000E+00  0.00000000E+00  0.00000000E+00
  0.00000000E+00  0.00000000E+00  0.00000000E+00
  0.00000000E+00  0.00000000E+00  0.00000000E+00
  0.00000000E+00  0.00000000E+00  0.00000000E+00
  0.00000000E+00  0.00000000E+00  0.00000000E+00
  0.00000000E+00  0.00000000E+00  0.00000000E+00
  0.00000000E+00  0.00000000E+00  0.00000000E+00
  0.00000000E+00  0.00000000E+00  0.00000000E+00
  0.00000000E+00  0.00000000E+00  0.00000000E+00
  0.00000000E+00  0.00000000E+00  0.00000000E+00
  0.00000000E+00  0.00000000E+00  0.00000000E+00
  0.00000000E+00  0.00000000E+00  0.00000000E+00
  0.00000000E+00  0.00000000E+00  0.00000000E+00
  0.00000000E+00  0.00000000E+00  0.00000000E+00
  0.00000000E+00  0.00000000E+00  0.00000000E+00
  0.00000000E+00  0.00000000E+00  0.00000000E+00
  0.00000000E+00  0.00000000E+00  0.00000000E+00
  0.00000000E+00  0.00000000E+00  0.00000000E+00
  0.00000000E+00  0.00000000E+00  0.00000000E+00
  0.00000000E+00  0.00000000E+00  0.00000000E+00
  0.00000000E+00  0.00000000E+00  0.00000000E+00
  0.00000000E+00  0.00000000E+00  0.00000000E+00
  0.00000000E+00  0.00000000E+00  0.00000000E+00
  0.00000000E+00  0.00000000E+00  0.00000000E+00
  0.00000000E+00  0.00000000E+00  0.00000000E+00
  0.00000000E+00  0.00000000E+00  0.00000000E+00
  0.00000000E+00  0.00000000E+00  0.00000000E+00
  0.00000000E+00  0.00000000E+00  0.00000000E+00
  0.00000000E+00  0.00000000E+00  0.00000000E+00
