41-ZrHfVMoW                             
   1.00000000000000     
     8.8890667063366049    0.0040211038646947    0.0182411095604442
     0.0097491887224213    9.0095399969634506   -0.0072077673518316
     0.0501660558544674   -0.0227308762280943    8.8693395918337412
  Zr              Mo              Hf              N               C               W               V             
     7     6     7    13    19     6     6
Direct
  0.9971257331015366  0.9965366574194859  0.9938052677569355
  0.2554128810626813  0.9990096847223575  0.2527103269658935
  0.2433882767277529  0.5018331255101195  0.2507751537993648
  0.5044141447749212  0.5005533582667039  0.9988417015432738
  0.5115324097000457  0.2446615345804054  0.7430485779826351
  0.9928933780691510  0.5010117443014265  0.5017036269609420
  0.4937767549534740  0.7574416198363016  0.7518024089009790
  0.9902007859197081  0.2271684260985630  0.2710788508394376
  0.7692127461542472  0.7403868157813480  0.9931031456084390
  0.0134047814567070  0.2361028591669773  0.7312523769153072
  0.7571873015752453  0.2748270853805475  0.4901238075190344
  0.9958085851836698  0.7301222553529063  0.7590842498824361
  0.2659759368074261  0.4949907824990454  0.7460121768052363
  0.2460033108792202  0.2518691619313825  0.9962426963158462
  0.5115300938685463  0.2593267699659119  0.2522488056025733
  0.7488262641775496  0.9916399339423930  0.2693213756634750
  0.7617222937176507  0.2608575751596324  0.9928718780925956
  0.2455878754258066  0.7513593530497783  0.0016102336282568
  0.2565377415312891  0.2513998994754197  0.5005087237276458
  0.2406636382979049  0.7514057050894755  0.5035960968330694
  0.2529819146077443  0.2483824651046576  0.2492765760569793
  0.2610842307366349  0.0028240716019252  0.9925383242523552
  0.0030178506796504  0.2543927861806178  0.0097825783437226
  0.7544331235766556  0.2479878374978945  0.2500362430452516
  0.7503718145420910  0.0018062868398220  0.0066617997999938
  0.5067708837547824  0.9992990257539394  0.2396533607546167
  0.9881381472686501  0.4843502009425389  0.2444526902232531
  0.5024950661182876  0.7623296620477920  0.0095884694474755
  0.9797888271554004  0.9922717974218170  0.7339531545649376
  0.7604244188908128  0.2275457527058508  0.7452873413770834
  0.7421313549965918  0.9904025543005364  0.5122033057783613
  0.5057941194232506  0.2258997895474134  0.4932080279671279
  0.4856421122813430  0.0010829114852836  0.7371208967093036
  0.9980170276301707  0.9930779027761260  0.2609986871808469
  0.5065384305592314  0.2491152195964968  0.9998035657469004
  0.2510500097610877  0.7510350166936726  0.2514099796290955
  0.2433905929688356  0.5020125848446428  0.9959378114949763
  0.0001405610502402  0.7459693493215485  0.0133455468784664
  0.7550385782809301  0.7415729652030484  0.2533216996746217
  0.7585740523495298  0.5070691517859867  0.0003324645907730
  0.5077396220541336  0.5051674626781221  0.2596751953417751
  0.2532891391190401  0.2545519624324333  0.7477819272403875
  0.2497291061360084  0.0004538390932640  0.5082976922486688
  0.9947715802568868  0.2388804787850667  0.5041046647072026
  0.2377138351734013  0.7593328190289671  0.7527715437721617
  0.2574511290190030  0.5012604089862621  0.5027897322216747
  0.9880929851809156  0.7582336762720621  0.5012017863279591
  0.9903506518028599  0.4871620239038271  0.7587134486853828
  0.7479117168244839  0.7465382870443641  0.7429736767135110
  0.7383915195046087  0.5066010752132815  0.5010658975114785
  0.5018890282975537  0.7470601236138907  0.4981691333573064
  0.5048972222476299  0.5027774210264928  0.7379207746628038
  0.5187166596051264  0.0140911613059589  0.9820190754621946
  0.9973031884604382  0.5156075913398589  0.9872034901837061
  0.5076947493118515  0.7419917408444809  0.2589525495110460
  0.2209201600974494  0.0175219428004142  0.7452403388945146
  0.4904238828920207  0.9797283384871274  0.4884432392272368
  0.7378552104793294  0.9784385929826013  0.7610595814149401
  0.9959215593793673  0.7770868411594097  0.2624783695593840
  0.7416380633022170  0.5152678103201038  0.2636586076791359
  0.0188499344938205  0.0005569326981148  0.5053159294482137
  0.5004322415747278  0.5318427992174517  0.4989235855034857
  0.7321257126531248  0.5308744159526398  0.7383219042714080
  0.7588634281175577  0.7380403266320250  0.4942639871949158
 
  0.00000000E+00  0.00000000E+00  0.00000000E+00
  0.00000000E+00  0.00000000E+00  0.00000000E+00
  0.00000000E+00  0.00000000E+00  0.00000000E+00
  0.00000000E+00  0.00000000E+00  0.00000000E+00
  0.00000000E+00  0.00000000E+00  0.00000000E+00
  0.00000000E+00  0.00000000E+00  0.00000000E+00
  0.00000000E+00  0.00000000E+00  0.00000000E+00
  0.00000000E+00  0.00000000E+00  0.00000000E+00
  0.00000000E+00  0.00000000E+00  0.00000000E+00
  0.00000000E+00  0.00000000E+00  0.00000000E+00
  0.00000000E+00  0.00000000E+00  0.00000000E+00
  0.00000000E+00  0.00000000E+00  0.00000000E+00
  0.00000000E+00  0.00000000E+00  0.00000000E+00
  0.00000000E+00  0.00000000E+00  0.00000000E+00
  0.00000000E+00  0.00000000E+00  0.00000000E+00
  0.00000000E+00  0.00000000E+00  0.00000000E+00
  0.00000000E+00  0.00000000E+00  0.00000000E+00
  0.00000000E+00  0.00000000E+00  0.00000000E+00
  0.00000000E+00  0.00000000E+00  0.00000000E+00
  0.00000000E+00  0.00000000E+00  0.00000000E+00
  0.00000000E+00  0.00000000E+00  0.00000000E+00
  0.00000000E+00  0.00000000E+00  0.00000000E+00
  0.00000000E+00  0.00000000E+00  0.00000000E+00
  0.00000000E+00  0.00000000E+00  0.00000000E+00
  0.00000000E+00  0.00000000E+00  0.00000000E+00
  0.00000000E+00  0.00000000E+00  0.00000000E+00
  0.00000000E+00  0.00000000E+00  0.00000000E+00
  0.00000000E+00  0.00000000E+00  0.00000000E+00
  0.00000000E+00  0.00000000E+00  0.00000000E+00
  0.00000000E+00  0.00000000E+00  0.00000000E+00
  0.00000000E+00  0.00000000E+00  0.00000000E+00
  0.00000000E+00  0.00000000E+00  0.00000000E+00
  0.00000000E+00  0.00000000E+00  0.00000000E+00
  0.00000000E+00  0.00000000E+00  0.00000000E+00
  0.00000000E+00  0.00000000E+00  0.00000000E+00
  0.00000000E+00  0.00000000E+00  0.00000000E+00
  0.00000000E+00  0.00000000E+00  0.00000000E+00
  0.00000000E+00  0.00000000E+00  0.00000000E+00
  0.00000000E+00  0.00000000E+00  0.00000000E+00
  0.00000000E+00  0.00000000E+00  0.00000000E+00
  0.00000000E+00  0.00000000E+00  0.00000000E+00
  0.00000000E+00  0.00000000E+00  0.00000000E+00
  0.00000000E+00  0.00000000E+00  0.00000000E+00
  0.00000000E+00  0.00000000E+00  0.00000000E+00
  0.00000000E+00  0.00000000E+00  0.00000000E+00
  0.00000000E+00  0.00000000E+00  0.00000000E+00
  0.00000000E+00  0.00000000E+00  0.00000000E+00
  0.00000000E+00  0.00000000E+00  0.00000000E+00
  0.00000000E+00  0.00000000E+00  0.00000000E+00
  0.00000000E+00  0.00000000E+00  0.00000000E+00
  0.00000000E+00  0.00000000E+00  0.00000000E+00
  0.00000000E+00  0.00000000E+00  0.00000000E+00
  0.00000000E+00  0.00000000E+00  0.00000000E+00
  0.00000000E+00  0.00000000E+00  0.00000000E+00
  0.00000000E+00  0.00000000E+00  0.00000000E+00
  0.00000000E+00  0.00000000E+00  0.00000000E+00
  0.00000000E+00  0.00000000E+00  0.00000000E+00
  0.00000000E+00  0.00000000E+00  0.00000000E+00
  0.00000000E+00  0.00000000E+00  0.00000000E+00
  0.00000000E+00  0.00000000E+00  0.00000000E+00
  0.00000000E+00  0.00000000E+00  0.00000000E+00
  0.00000000E+00  0.00000000E+00  0.00000000E+00
  0.00000000E+00  0.00000000E+00  0.00000000E+00
  0.00000000E+00  0.00000000E+00  0.00000000E+00
