41-ZrHfVMoW                             
   1.00000000000000     
     8.8878954774599546    0.0038039178690075    0.0175717380524309
     0.0095281694999613    9.0085856302353946   -0.0069246994591298
     0.0494933237627072   -0.0224508316843778    8.8686899641203762
  Zr              Mo              Hf              N               C               W               V             
     7     6     7    13    19     6     6
Direct
  0.9971185909195596  0.9965270825205419  0.9937897779469074
  0.2554231952385329  0.9989954613126744  0.2527392833540851
  0.2433833681060668  0.5018409608160522  0.2507800525547504
  0.5044195269060848  0.5005488060484785  0.9988372531878702
  0.5115514501501449  0.2446383278012272  0.7430445790232794
  0.9928904825193345  0.5010181789351156  0.5017102169808174
  0.4937802551208922  0.7574605986983531  0.7517982622070760
  0.9901803356958783  0.2271529984593047  0.2711169915722557
  0.7692425802046855  0.7403662153574733  0.9930753486762265
  0.0134122325930121  0.2361178987333273  0.7311930173104373
  0.7572153739528337  0.2748377940605075  0.4900905607135204
  0.9958003569749547  0.7301080498424298  0.7591162830493142
  0.2659842369066610  0.4949520181282612  0.7460123087744748
  0.2459939799438031  0.2518679099073545  0.9962373763051311
  0.5115398371868836  0.2593273239825756  0.2522523877798135
  0.7488201497380217  0.9916528612947871  0.2693405024939385
  0.7617363693483159  0.2608635936318083  0.9928640884453979
  0.2455843614733731  0.7513608617335252  0.0016060650986606
  0.2565340430400609  0.2513860540632394  0.5005193496994756
  0.2406587663436879  0.7514055851034602  0.5035987885634814
  0.2529760129866750  0.2483689193741147  0.2492892100649497
  0.2610680425638987  0.0028328845839351  0.9925506740502074
  0.0030228847810215  0.2543744275674573  0.0097899315670692
  0.7544278141019808  0.2479941068497841  0.2500368141695210
  0.7503702979640026  0.0018226079091999  0.0066595418889128
  0.5067724135068796  0.9992920033398633  0.2396402126938215
  0.9881662859192155  0.4843512402905726  0.2444746982731416
  0.5024828032564640  0.7623152077762626  0.0095751996392678
  0.9798220984519167  0.9922607089809253  0.7339638251430125
  0.7604074687847366  0.2275409978353622  0.7453053949476131
  0.7421178733529994  0.9903930625778562  0.5121873950659370
  0.5057735909548211  0.2258985085308521  0.4932048411444893
  0.4856855733080877  0.0010785293227900  0.7371116562592620
  0.9980140159452755  0.9930798739446512  0.2609906435452775
  0.5065446663963571  0.2491088702062876  0.9997929415693408
  0.2510541024949279  0.7510325387657685  0.2514099009907228
  0.2433926167042174  0.5020136494616606  0.9959452049166949
  0.0001252550851600  0.7459641752824925  0.0133305129326929
  0.7550338629665444  0.7415702258677520  0.2533245875633248
  0.7585789468725619  0.5070729228378658  0.0003215812015914
  0.5077418838215373  0.5051734319834376  0.2596700980004099
  0.2532796458734292  0.2545349980807309  0.7477845904958673
  0.2497361661314709  0.0004515093183820  0.5083135500083186
  0.9947623563792409  0.2388802133348576  0.5041037071905105
  0.2377130904826524  0.7593392511794128  0.7527712453706369
  0.2574474107569443  0.5012517219433988  0.5027928505174463
  0.9880910989071924  0.7582202314342383  0.5011989984344267
  0.9903573753814182  0.4871836574249564  0.7587348158229629
  0.7479082146473524  0.7465426125067154  0.7429910923447046
  0.7383985392079414  0.5065779056795788  0.5010723706877950
  0.5018683080160056  0.7470756258246767  0.4981559236921098
  0.5048721267103240  0.5027834313694740  0.7379280677972371
  0.5187513795333965  0.0141066662052202  0.9819840883500168
  0.9972810998980975  0.5156479872782967  0.9871706719734846
  0.5077234397483291  0.7419781929200120  0.2589861175715826
  0.2208815519591991  0.0175503877577641  0.7452177872240757
  0.4904220709171170  0.9797156688312690  0.4883969532039137
  0.7378785347280237  0.9784179150098612  0.7610980941069189
  0.9959018676820761  0.7771251883559637  0.2624983712942529
  0.7416330513372619  0.5152672988053600  0.2636983698062973
  0.0188625454290996  0.0005503583069448  0.5053308995387314
  0.5004218900591257  0.5318897333491845  0.4989319100292736
  0.7321016745516145  0.5309205565755651  0.7383005586862227
  0.7588589350806220  0.7380211657887592  0.4942417424890593
 
  0.00000000E+00  0.00000000E+00  0.00000000E+00
  0.00000000E+00  0.00000000E+00  0.00000000E+00
  0.00000000E+00  0.00000000E+00  0.00000000E+00
  0.00000000E+00  0.00000000E+00  0.00000000E+00
  0.00000000E+00  0.00000000E+00  0.00000000E+00
  0.00000000E+00  0.00000000E+00  0.00000000E+00
  0.00000000E+00  0.00000000E+00  0.00000000E+00
  0.00000000E+00  0.00000000E+00  0.00000000E+00
  0.00000000E+00  0.00000000E+00  0.00000000E+00
  0.00000000E+00  0.00000000E+00  0.00000000E+00
  0.00000000E+00  0.00000000E+00  0.00000000E+00
  0.00000000E+00  0.00000000E+00  0.00000000E+00
  0.00000000E+00  0.00000000E+00  0.00000000E+00
  0.00000000E+00  0.00000000E+00  0.00000000E+00
  0.00000000E+00  0.00000000E+00  0.00000000E+00
  0.00000000E+00  0.00000000E+00  0.00000000E+00
  0.00000000E+00  0.00000000E+00  0.00000000E+00
  0.00000000E+00  0.00000000E+00  0.00000000E+00
  0.00000000E+00  0.00000000E+00  0.00000000E+00
  0.00000000E+00  0.00000000E+00  0.00000000E+00
  0.00000000E+00  0.00000000E+00  0.00000000E+00
  0.00000000E+00  0.00000000E+00  0.00000000E+00
  0.00000000E+00  0.00000000E+00  0.00000000E+00
  0.00000000E+00  0.00000000E+00  0.00000000E+00
  0.00000000E+00  0.00000000E+00  0.00000000E+00
  0.00000000E+00  0.00000000E+00  0.00000000E+00
  0.00000000E+00  0.00000000E+00  0.00000000E+00
  0.00000000E+00  0.00000000E+00  0.00000000E+00
  0.00000000E+00  0.00000000E+00  0.00000000E+00
  0.00000000E+00  0.00000000E+00  0.00000000E+00
  0.00000000E+00  0.00000000E+00  0.00000000E+00
  0.00000000E+00  0.00000000E+00  0.00000000E+00
  0.00000000E+00  0.00000000E+00  0.00000000E+00
  0.00000000E+00  0.00000000E+00  0.00000000E+00
  0.00000000E+00  0.00000000E+00  0.00000000E+00
  0.00000000E+00  0.00000000E+00  0.00000000E+00
  0.00000000E+00  0.00000000E+00  0.00000000E+00
  0.00000000E+00  0.00000000E+00  0.00000000E+00
  0.00000000E+00  0.00000000E+00  0.00000000E+00
  0.00000000E+00  0.00000000E+00  0.00000000E+00
  0.00000000E+00  0.00000000E+00  0.00000000E+00
  0.00000000E+00  0.00000000E+00  0.00000000E+00
  0.00000000E+00  0.00000000E+00  0.00000000E+00
  0.00000000E+00  0.00000000E+00  0.00000000E+00
  0.00000000E+00  0.00000000E+00  0.00000000E+00
  0.00000000E+00  0.00000000E+00  0.00000000E+00
  0.00000000E+00  0.00000000E+00  0.00000000E+00
  0.00000000E+00  0.00000000E+00  0.00000000E+00
  0.00000000E+00  0.00000000E+00  0.00000000E+00
  0.00000000E+00  0.00000000E+00  0.00000000E+00
  0.00000000E+00  0.00000000E+00  0.00000000E+00
  0.00000000E+00  0.00000000E+00  0.00000000E+00
  0.00000000E+00  0.00000000E+00  0.00000000E+00
  0.00000000E+00  0.00000000E+00  0.00000000E+00
  0.00000000E+00  0.00000000E+00  0.00000000E+00
  0.00000000E+00  0.00000000E+00  0.00000000E+00
  0.00000000E+00  0.00000000E+00  0.00000000E+00
  0.00000000E+00  0.00000000E+00  0.00000000E+00
  0.00000000E+00  0.00000000E+00  0.00000000E+00
  0.00000000E+00  0.00000000E+00  0.00000000E+00
  0.00000000E+00  0.00000000E+00  0.00000000E+00
  0.00000000E+00  0.00000000E+00  0.00000000E+00
  0.00000000E+00  0.00000000E+00  0.00000000E+00
  0.00000000E+00  0.00000000E+00  0.00000000E+00
