48-ZrVNbMoW                             
   1.00000000000000     
     8.8489076358631067    0.0138323286174288    0.0136772149693550
     0.0198965304123341    8.8508359412826749    0.0002303717422909
     0.0455233041051869   -0.0150468154375436    8.8571109292547003
   Zr   Nb   V    N    C    W    Mo
     7     6     7    13    19     6     6
Direct
  0.0008463476081032  0.0041379950759906  0.9985052471008421
  0.2611061206180892  0.0065689329413655  0.2430395982362614
  0.2466280237437938  0.4904390204951572  0.2518770860262580
  0.5027935935045902  0.4965501030887912  0.0009191124495548
  0.5040948576775044  0.2483543569823735  0.7420817763440349
 -0.0016476327382748  0.5034162621573882  0.5007656947655601
  0.4935039021202679  0.7577061599229715  0.7553511332870330
  0.9872193607142300  0.2365253694224484  0.2569821998923699
  0.7636857414802540  0.7456273903338505  0.0088722795032210
  0.0006670007405004  0.2613133996280039  0.7503648480107371
  0.7527832294255846  0.2528086793280587  0.4894053364337307
  0.0002681692493967  0.7466765312360512  0.7487266007575550
  0.2541322007538657  0.5015344219057898  0.7443523347368378
  0.2559335090935742  0.2645838259010969  0.9788143607264531
  0.5274961768012115  0.2638949504397131  0.2484887477841159
  0.7429261113496719  0.9844226380961221  0.2814485664185842
  0.7346028467728560  0.2458231388491971  0.9942495501838113
  0.2284197113434852  0.7272648036880870  0.0054075848349925
  0.2350866489827534  0.2399585317629357  0.5174061441240682
  0.2486313711907483  0.7600840502142675  0.4932866618677693
  0.2413188324368143  0.2477471176780738  0.2468041310899432
  0.2613543817629171  0.0044737777433994  0.9873085397009561
 -0.0029774952479438  0.2550146437758209  0.0032518050002929
  0.7441681060317825  0.2350127593997890  0.2416066850096455
  0.7520094559484346  0.0059267851291548  0.0185777133010067
  0.5169133557831861  0.9967311584458440  0.2350621426129108
  0.9934116560690951  0.4949341189699721  0.2443147795994154
  0.4994486411869922  0.7616786808615060  0.0095534527087676
  0.9852381570703477  0.0033017058615641  0.7425306911504744
  0.7557110704964409  0.2412545161573825  0.7532530655686873
  0.7479088888063339  0.0012758536723712  0.5212434714991553
  0.4992025269962053  0.2387100445158210  0.4814739085765271
  0.4917819260493992  0.0025110457336801  0.7362106224423075
  0.9938182043834971  0.0023220253634949  0.2567616999962730
  0.4946107095790436  0.2461090041720398  0.0065543571714187
  0.2543476472917703  0.7495473772554461  0.2452565620002350
  0.2440146997765666  0.4964620531613819  0.9954528673292137
  0.0041556556820298  0.7433248993747171  0.0059332795274129
  0.7523828197586433  0.7452741410480943  0.2523562182014571
  0.7582511455990402  0.4907825661642486  0.0099606279090512
  0.4984557458334646  0.4961400376878697  0.2534827683030013
  0.2476839631404975  0.2495683416397131  0.7481016877639539
  0.2682318324227430  0.0011184575973069  0.5024562599289094
  0.0023991235138767  0.2475508450661181  0.5027767820930122
  0.2418426349748029  0.7571542539247269  0.7552292756534092
  0.2574745597386071  0.4977382519781343  0.5024544142146543
  0.0017581299191931  0.7603880162586891  0.5011907843583608
  0.0028066720000484  0.5034496582711601  0.7503460229799718
  0.7495897353607578  0.7527590649580765  0.7513886073450021
  0.7436625435745575  0.4978013538431578  0.5087983804129208
  0.4902316700768800  0.7521735706365976  0.4980160411160587
  0.5035679594482571  0.5036771806543489  0.7428572881014877
  0.5214199779809910  0.0137322622930227  0.9836549160292759
 -0.0019792192372899  0.4998332251903220  0.9861761001004268
  0.4936523773857852  0.7399060662311222  0.2561741561542775
  0.2333663138393260  0.0023714148787719  0.7391642304193131
  0.5123926761378169  0.9864405786238082  0.4754479757509462
  0.7376922822835934  0.9848102752590043  0.7734055326635213
  0.0070711526444411  0.7734479449915870  0.2592793947377144
  0.7362927930039633  0.4958060975919503  0.2606875052862975
  0.0238405716377216  0.0025806805336643  0.4998207844059752
  0.5039584486970043  0.5205210473631290  0.4920259416887883
  0.7539718754521131  0.5180228780836152  0.7641709013819258
  0.7443688802780289  0.7429234114906472  0.4890829012318723
 
  0.00000000E+00  0.00000000E+00  0.00000000E+00
  0.00000000E+00  0.00000000E+00  0.00000000E+00
  0.00000000E+00  0.00000000E+00  0.00000000E+00
  0.00000000E+00  0.00000000E+00  0.00000000E+00
  0.00000000E+00  0.00000000E+00  0.00000000E+00
  0.00000000E+00  0.00000000E+00  0.00000000E+00
  0.00000000E+00  0.00000000E+00  0.00000000E+00
  0.00000000E+00  0.00000000E+00  0.00000000E+00
  0.00000000E+00  0.00000000E+00  0.00000000E+00
  0.00000000E+00  0.00000000E+00  0.00000000E+00
  0.00000000E+00  0.00000000E+00  0.00000000E+00
  0.00000000E+00  0.00000000E+00  0.00000000E+00
  0.00000000E+00  0.00000000E+00  0.00000000E+00
  0.00000000E+00  0.00000000E+00  0.00000000E+00
  0.00000000E+00  0.00000000E+00  0.00000000E+00
  0.00000000E+00  0.00000000E+00  0.00000000E+00
  0.00000000E+00  0.00000000E+00  0.00000000E+00
  0.00000000E+00  0.00000000E+00  0.00000000E+00
  0.00000000E+00  0.00000000E+00  0.00000000E+00
  0.00000000E+00  0.00000000E+00  0.00000000E+00
  0.00000000E+00  0.00000000E+00  0.00000000E+00
  0.00000000E+00  0.00000000E+00  0.00000000E+00
  0.00000000E+00  0.00000000E+00  0.00000000E+00
  0.00000000E+00  0.00000000E+00  0.00000000E+00
  0.00000000E+00  0.00000000E+00  0.00000000E+00
  0.00000000E+00  0.00000000E+00  0.00000000E+00
  0.00000000E+00  0.00000000E+00  0.00000000E+00
  0.00000000E+00  0.00000000E+00  0.00000000E+00
  0.00000000E+00  0.00000000E+00  0.00000000E+00
  0.00000000E+00  0.00000000E+00  0.00000000E+00
  0.00000000E+00  0.00000000E+00  0.00000000E+00
  0.00000000E+00  0.00000000E+00  0.00000000E+00
  0.00000000E+00  0.00000000E+00  0.00000000E+00
  0.00000000E+00  0.00000000E+00  0.00000000E+00
  0.00000000E+00  0.00000000E+00  0.00000000E+00
  0.00000000E+00  0.00000000E+00  0.00000000E+00
  0.00000000E+00  0.00000000E+00  0.00000000E+00
  0.00000000E+00  0.00000000E+00  0.00000000E+00
  0.00000000E+00  0.00000000E+00  0.00000000E+00
  0.00000000E+00  0.00000000E+00  0.00000000E+00
  0.00000000E+00  0.00000000E+00  0.00000000E+00
  0.00000000E+00  0.00000000E+00  0.00000000E+00
  0.00000000E+00  0.00000000E+00  0.00000000E+00
  0.00000000E+00  0.00000000E+00  0.00000000E+00
  0.00000000E+00  0.00000000E+00  0.00000000E+00
  0.00000000E+00  0.00000000E+00  0.00000000E+00
  0.00000000E+00  0.00000000E+00  0.00000000E+00
  0.00000000E+00  0.00000000E+00  0.00000000E+00
  0.00000000E+00  0.00000000E+00  0.00000000E+00
  0.00000000E+00  0.00000000E+00  0.00000000E+00
  0.00000000E+00  0.00000000E+00  0.00000000E+00
  0.00000000E+00  0.00000000E+00  0.00000000E+00
  0.00000000E+00  0.00000000E+00  0.00000000E+00
  0.00000000E+00  0.00000000E+00  0.00000000E+00
  0.00000000E+00  0.00000000E+00  0.00000000E+00
  0.00000000E+00  0.00000000E+00  0.00000000E+00
  0.00000000E+00  0.00000000E+00  0.00000000E+00
  0.00000000E+00  0.00000000E+00  0.00000000E+00
  0.00000000E+00  0.00000000E+00  0.00000000E+00
  0.00000000E+00  0.00000000E+00  0.00000000E+00
  0.00000000E+00  0.00000000E+00  0.00000000E+00
  0.00000000E+00  0.00000000E+00  0.00000000E+00
  0.00000000E+00  0.00000000E+00  0.00000000E+00
  0.00000000E+00  0.00000000E+00  0.00000000E+00
