16-TiZrVMoW                             
   1.00000000000000     
     8.8189244470225283   -0.0115523867992811    0.0175745035431591
    -0.0115742092376285    8.8052781971774738    0.0002818188329564
     0.0174628331929545    0.0002295530878476    8.7403175505300279
  Ti              W               V               N               C               Zr              Mo            
     7     6     6    13    19     7     6
Direct
  0.9983774142057515  0.0068813168689649  0.0057195926752045
  0.2412684039694539  0.0120029987609174  0.2486959390357557
  0.2570022261902194  0.4851782436695300  0.2528126342172018
  0.4979172684893311  0.5000898017936701  0.0009117825634505
  0.4957348106520686  0.2571910162496903  0.7515690737793664
  0.0082404788583305  0.4974524399318825  0.4951599288572177
  0.5050960199767007  0.7436183990774691  0.7501028799792115
  0.9892006746569314  0.2379377959531856  0.2647906262560511
  0.7689882364167777  0.7476809650894582  0.0012470359002239
  0.0164180868674153  0.2696257458966138  0.7474807175402775
  0.7611255473411812  0.2674296544588212  0.4833528346874914
  0.9929457227004371  0.7255876787113489  0.7451450457716713
  0.2619147647015240  0.4957250970966799  0.7497213131892997
  0.2671981312005034  0.2632536189362210  0.9877023876916949
  0.5126228726650229  0.2613269587127746  0.2418141483474912
  0.7585809317711460  0.9841772067663688  0.2323538149937388
  0.7221556005996882  0.2578192611813371  0.0140727133110013
  0.2263036433880084  0.7323905180290744  0.0055102979137721
  0.2380360022310625  0.2476491379252979  0.5167173232471862
  0.2444466867366871  0.2492183869530475  0.2496693141851162
  0.2437770859109048  0.0083594662592887  0.0081234251984943
  0.9955655406927935  0.2406370808610601  0.0017219755893906
  0.7469580966017316  0.2369267317038559  0.2422122466918918
  0.7568853869548818  0.0044574076659403  0.0042635511819104
  0.5025053432551463  0.0098233036733567  0.2469536419284774
  0.0042277037602098  0.4857286366234201  0.2592205796994290
  0.5018795859323297  0.7471325736035140  0.9916334588398764
  0.0003933487388408  0.0057066866938826  0.7563129981062980
  0.7524224985289663  0.2549742489646526  0.7451045727216640
  0.7549601916037172  0.0123412960539370  0.4919891893206757
  0.5080323208846189  0.2549801018662891  0.4980897636578239
  0.5036640220247237  0.0039599090798172  0.7497627112856999
  0.9954857446734775  0.0030404759440669  0.2467146281226374
  0.4947032482750791  0.2592463362165372  0.0008875146618407
  0.2434807501928045  0.7491016721659165  0.2383844100603506
  0.2533304343572089  0.4994258589930655  0.0020151148458341
  0.0039005522570435  0.7535462127643813  0.9984904948726512
  0.7546834748360689  0.7471409910768245  0.2525280885691686
  0.7404556370921608  0.4966965238650306  0.0029379179338134
  0.4926073164150011  0.4911111347300324  0.2462968969984644
  0.2558499934834210  0.2521758842827070  0.7513584642961672
  0.2494715636367169  0.0095393269012554  0.4930693744912933
  0.0051904232780720  0.2546956793803404  0.5062712677628273
  0.2479892056627044  0.7420981564344520  0.7614908591949583
  0.2529258148631826  0.4872461646019182  0.4992712909177076
  0.9933191813570883  0.7541469573479546  0.5014622614388211
  0.0001377275926128  0.4983694255601469  0.7447915393868171
  0.7474574761505763  0.7488168981272990  0.7539357485882036
  0.7576849592717563  0.4961951931608288  0.5005366438842351
  0.5049474936087569  0.7469221443978417  0.5060643895490518
  0.4985535610769888  0.5007024061845032  0.7520641868617771
  0.4975519942812000  0.0026152920603649  0.0028714189586830
  0.9966993906543634  0.4920937120526698  0.0084351229687393
  0.4982274520657116  0.7455533921228255  0.2455780715257633
  0.2449341605612323  0.9977113411768154  0.7555189628808149
  0.5016661289047616  0.0061452750828641  0.4936195962845150
  0.7575126861040881  0.0044951117264208  0.7490221729589800
  0.2483911015606468  0.7489629787790734  0.4971735429286615
  0.9997902918280838  0.7715225743994728  0.2514258752894583
  0.7304867411226279  0.4918687526927607  0.2464924308256843
  0.0119764053777684  0.0085917933147656  0.4880465253511899
  0.4990862151957251  0.5030307978040152  0.4970013751133536
  0.7351863780319474  0.5069817173824765  0.7625806099556004
  0.7514725197240845  0.7229468061590419  0.5037263561579224
 
  0.00000000E+00  0.00000000E+00  0.00000000E+00
  0.00000000E+00  0.00000000E+00  0.00000000E+00
  0.00000000E+00  0.00000000E+00  0.00000000E+00
  0.00000000E+00  0.00000000E+00  0.00000000E+00
  0.00000000E+00  0.00000000E+00  0.00000000E+00
  0.00000000E+00  0.00000000E+00  0.00000000E+00
  0.00000000E+00  0.00000000E+00  0.00000000E+00
  0.00000000E+00  0.00000000E+00  0.00000000E+00
  0.00000000E+00  0.00000000E+00  0.00000000E+00
  0.00000000E+00  0.00000000E+00  0.00000000E+00
  0.00000000E+00  0.00000000E+00  0.00000000E+00
  0.00000000E+00  0.00000000E+00  0.00000000E+00
  0.00000000E+00  0.00000000E+00  0.00000000E+00
  0.00000000E+00  0.00000000E+00  0.00000000E+00
  0.00000000E+00  0.00000000E+00  0.00000000E+00
  0.00000000E+00  0.00000000E+00  0.00000000E+00
  0.00000000E+00  0.00000000E+00  0.00000000E+00
  0.00000000E+00  0.00000000E+00  0.00000000E+00
  0.00000000E+00  0.00000000E+00  0.00000000E+00
  0.00000000E+00  0.00000000E+00  0.00000000E+00
  0.00000000E+00  0.00000000E+00  0.00000000E+00
  0.00000000E+00  0.00000000E+00  0.00000000E+00
  0.00000000E+00  0.00000000E+00  0.00000000E+00
  0.00000000E+00  0.00000000E+00  0.00000000E+00
  0.00000000E+00  0.00000000E+00  0.00000000E+00
  0.00000000E+00  0.00000000E+00  0.00000000E+00
  0.00000000E+00  0.00000000E+00  0.00000000E+00
  0.00000000E+00  0.00000000E+00  0.00000000E+00
  0.00000000E+00  0.00000000E+00  0.00000000E+00
  0.00000000E+00  0.00000000E+00  0.00000000E+00
  0.00000000E+00  0.00000000E+00  0.00000000E+00
  0.00000000E+00  0.00000000E+00  0.00000000E+00
  0.00000000E+00  0.00000000E+00  0.00000000E+00
  0.00000000E+00  0.00000000E+00  0.00000000E+00
  0.00000000E+00  0.00000000E+00  0.00000000E+00
  0.00000000E+00  0.00000000E+00  0.00000000E+00
  0.00000000E+00  0.00000000E+00  0.00000000E+00
  0.00000000E+00  0.00000000E+00  0.00000000E+00
  0.00000000E+00  0.00000000E+00  0.00000000E+00
  0.00000000E+00  0.00000000E+00  0.00000000E+00
  0.00000000E+00  0.00000000E+00  0.00000000E+00
  0.00000000E+00  0.00000000E+00  0.00000000E+00
  0.00000000E+00  0.00000000E+00  0.00000000E+00
  0.00000000E+00  0.00000000E+00  0.00000000E+00
  0.00000000E+00  0.00000000E+00  0.00000000E+00
  0.00000000E+00  0.00000000E+00  0.00000000E+00
  0.00000000E+00  0.00000000E+00  0.00000000E+00
  0.00000000E+00  0.00000000E+00  0.00000000E+00
  0.00000000E+00  0.00000000E+00  0.00000000E+00
  0.00000000E+00  0.00000000E+00  0.00000000E+00
  0.00000000E+00  0.00000000E+00  0.00000000E+00
  0.00000000E+00  0.00000000E+00  0.00000000E+00
  0.00000000E+00  0.00000000E+00  0.00000000E+00
  0.00000000E+00  0.00000000E+00  0.00000000E+00
  0.00000000E+00  0.00000000E+00  0.00000000E+00
  0.00000000E+00  0.00000000E+00  0.00000000E+00
  0.00000000E+00  0.00000000E+00  0.00000000E+00
  0.00000000E+00  0.00000000E+00  0.00000000E+00
  0.00000000E+00  0.00000000E+00  0.00000000E+00
  0.00000000E+00  0.00000000E+00  0.00000000E+00
  0.00000000E+00  0.00000000E+00  0.00000000E+00
  0.00000000E+00  0.00000000E+00  0.00000000E+00
  0.00000000E+00  0.00000000E+00  0.00000000E+00
  0.00000000E+00  0.00000000E+00  0.00000000E+00
