16-TiZrVMoW                             
   1.00000000000000     
     8.8268676903359999   -0.0137434880366786    0.0129947648643746
    -0.0137616141416150    8.8098506597022386   -0.0024292326386464
     0.0129209443972639   -0.0024721130757288    8.7479767506210049
   Ti   W    V    N    C    Zr   Mo
     7     6     6    13    19     7     6
Direct
  0.9974150100362934  0.0070329565144813  0.0058913286989310
  0.2419202088559781  0.0106613557445016  0.2480147910211852
  0.2573213611046616  0.4868527726856879  0.2522957432448799
  0.4983417548968054  0.5004766048880049  0.0002003523380774
  0.4953733264855422  0.2566172769608842  0.7514232291715345
  0.0085556594520102  0.4978587205007964  0.4934424802012449
  0.5046271939159823  0.7438683441134810  0.7501415574350487
 -0.0082610806799795  0.2376598502018104  0.2641741634799916
  0.7695084716434141  0.7459985120349043  0.0018295137034024
  0.0147446139579033  0.2690063161465595  0.7448755433538382
  0.7594722757542152  0.2693079292526214  0.4845947719326623
  0.9926015076020205  0.7255125207110095  0.7447902809599173
  0.2619962764954384  0.4953607818051123  0.7494203030867380
  0.2690154164795936  0.2629395859250045  0.9901963242396381
  0.5094288744035090  0.2618260930600219  0.2427209514776316
  0.7599559486910790  0.9865043566251512  0.2386199440022734
  0.7233501781241755  0.2561289580316363  0.0194177801852610
  0.2264250827374009  0.7323929770728315  0.0046046907292412
  0.2379366706262012  0.2475287051106331  0.5166148685980750
  0.2452954986584831  0.2489106888929325  0.2480107286759897
  0.2444449527504433  0.0073042674300172  0.0085828892909919
  0.9966945767470379  0.2395929181872163  0.0009447020302922
  0.7473595640297315  0.2407150557657485  0.2443657304969412
  0.7574803338985088  0.0036878717455552  0.0054997880394145
  0.5020122296377741  0.0102701157225820  0.2475821608953995
  0.0044600384442793  0.4852783638416489  0.2581451357538433
  0.5029541264433058  0.7469108426129816  0.9917996102856782
  0.9999182533617055  0.0051867571129569  0.7564311547140472
  0.7528260112130848  0.2544108997170731  0.7420357318557360
  0.7550184365567724  0.0106593973273791  0.4917292659678111
  0.5066578471883136  0.2554549265584096  0.4989660445489179
  0.5034718851719090  0.0037474708150095  0.7503978658409690
  0.9972010515444201  0.0025833415158023  0.2461405199461153
  0.4967104076973002  0.2588590285179286  0.0010363043114328
  0.2436439681603663  0.7486562204817738  0.2387732775789539
  0.2540368968038638  0.4993558582018912  0.0015499949652362
  0.0042478292481875  0.7527137749941929  0.9981165861901551
  0.7546275901513496  0.7489282342744583  0.2519122152640236
  0.7410247284194690  0.4952324027473101  0.0019512135746474
  0.4920978632984399  0.4923106463970258  0.2459618693913562
  0.2546986459659026  0.2523704426277397  0.7525004500232846
  0.2492643789225081  0.0096787152966242  0.4934715436849259
  0.0038775793199869  0.2539309289679109  0.5046233543266334
  0.2475959986769026  0.7420756202804422  0.7615530557083326
  0.2524615594078261  0.4869055229982238  0.4989063319424121
  0.9928478971426518  0.7545321220716973  0.5014538319028174
 -0.0003034971471298  0.4977943490950137  0.7435234426300655
  0.7470813256725120  0.7489262299954285  0.7547451109104515
  0.7568827517457763  0.4970725748160562  0.4987453761517531
  0.5043035378838201  0.7478026355566760  0.5063711076161144
  0.4988103857988311  0.5003934619351780  0.7518092532091418
  0.4989807559722663  0.0024176150740988  0.0033318482481357
  0.9974162454159693  0.4912905927934134  0.0073510124176675
  0.4979025764043262  0.7460686004431435  0.2462314156641218
  0.2446215374408546 -0.0017666577628595  0.7563587158816248
  0.4999985538758953  0.0063576338969039  0.4943856046550454
  0.7571916877626814  0.0036484940764582  0.7478107125403318
  0.2479580017605811  0.7491719614017468  0.4977282693557105
  0.0004630994720245  0.7706467927050548  0.2509257665667399
  0.7292501369417226  0.4947371531373724  0.2444772107472763
  0.0123123116746916  0.0070517280837352  0.4871259997834143
  0.4980397564081120  0.5032109046952429  0.4973676203400496
  0.7356109209135728  0.5069911779335654  0.7623278610536530
  0.7508216845607808  0.7243883716361488  0.5036743691628209
 
  0.00000000E+00  0.00000000E+00  0.00000000E+00
  0.00000000E+00  0.00000000E+00  0.00000000E+00
  0.00000000E+00  0.00000000E+00  0.00000000E+00
  0.00000000E+00  0.00000000E+00  0.00000000E+00
  0.00000000E+00  0.00000000E+00  0.00000000E+00
  0.00000000E+00  0.00000000E+00  0.00000000E+00
  0.00000000E+00  0.00000000E+00  0.00000000E+00
  0.00000000E+00  0.00000000E+00  0.00000000E+00
  0.00000000E+00  0.00000000E+00  0.00000000E+00
  0.00000000E+00  0.00000000E+00  0.00000000E+00
  0.00000000E+00  0.00000000E+00  0.00000000E+00
  0.00000000E+00  0.00000000E+00  0.00000000E+00
  0.00000000E+00  0.00000000E+00  0.00000000E+00
  0.00000000E+00  0.00000000E+00  0.00000000E+00
  0.00000000E+00  0.00000000E+00  0.00000000E+00
  0.00000000E+00  0.00000000E+00  0.00000000E+00
  0.00000000E+00  0.00000000E+00  0.00000000E+00
  0.00000000E+00  0.00000000E+00  0.00000000E+00
  0.00000000E+00  0.00000000E+00  0.00000000E+00
  0.00000000E+00  0.00000000E+00  0.00000000E+00
  0.00000000E+00  0.00000000E+00  0.00000000E+00
  0.00000000E+00  0.00000000E+00  0.00000000E+00
  0.00000000E+00  0.00000000E+00  0.00000000E+00
  0.00000000E+00  0.00000000E+00  0.00000000E+00
  0.00000000E+00  0.00000000E+00  0.00000000E+00
  0.00000000E+00  0.00000000E+00  0.00000000E+00
  0.00000000E+00  0.00000000E+00  0.00000000E+00
  0.00000000E+00  0.00000000E+00  0.00000000E+00
  0.00000000E+00  0.00000000E+00  0.00000000E+00
  0.00000000E+00  0.00000000E+00  0.00000000E+00
  0.00000000E+00  0.00000000E+00  0.00000000E+00
  0.00000000E+00  0.00000000E+00  0.00000000E+00
  0.00000000E+00  0.00000000E+00  0.00000000E+00
  0.00000000E+00  0.00000000E+00  0.00000000E+00
  0.00000000E+00  0.00000000E+00  0.00000000E+00
  0.00000000E+00  0.00000000E+00  0.00000000E+00
  0.00000000E+00  0.00000000E+00  0.00000000E+00
  0.00000000E+00  0.00000000E+00  0.00000000E+00
  0.00000000E+00  0.00000000E+00  0.00000000E+00
  0.00000000E+00  0.00000000E+00  0.00000000E+00
  0.00000000E+00  0.00000000E+00  0.00000000E+00
  0.00000000E+00  0.00000000E+00  0.00000000E+00
  0.00000000E+00  0.00000000E+00  0.00000000E+00
  0.00000000E+00  0.00000000E+00  0.00000000E+00
  0.00000000E+00  0.00000000E+00  0.00000000E+00
  0.00000000E+00  0.00000000E+00  0.00000000E+00
  0.00000000E+00  0.00000000E+00  0.00000000E+00
  0.00000000E+00  0.00000000E+00  0.00000000E+00
  0.00000000E+00  0.00000000E+00  0.00000000E+00
  0.00000000E+00  0.00000000E+00  0.00000000E+00
  0.00000000E+00  0.00000000E+00  0.00000000E+00
  0.00000000E+00  0.00000000E+00  0.00000000E+00
  0.00000000E+00  0.00000000E+00  0.00000000E+00
  0.00000000E+00  0.00000000E+00  0.00000000E+00
  0.00000000E+00  0.00000000E+00  0.00000000E+00
  0.00000000E+00  0.00000000E+00  0.00000000E+00
  0.00000000E+00  0.00000000E+00  0.00000000E+00
  0.00000000E+00  0.00000000E+00  0.00000000E+00
  0.00000000E+00  0.00000000E+00  0.00000000E+00
  0.00000000E+00  0.00000000E+00  0.00000000E+00
  0.00000000E+00  0.00000000E+00  0.00000000E+00
  0.00000000E+00  0.00000000E+00  0.00000000E+00
  0.00000000E+00  0.00000000E+00  0.00000000E+00
  0.00000000E+00  0.00000000E+00  0.00000000E+00
