32-TiVNbTaW                             
   1.00000000000000     
     8.7442485057432364   -0.0079812516186757    0.0264293292325609
    -0.0079606270594673    8.7007974528878833    0.0089004985369731
     0.0264474971015997    0.0088178634669523    8.7292057059603572
   Ti   W    V    N    C    Nb   Ta
     7     6     7    13    19     6     6
Direct
  0.0067795224105625  0.0087043961853272  0.0073320985133930
  0.2471923700501226  0.0071711153024737  0.2519200596711770
  0.2536404526227518  0.4940356455652762  0.2490605702793284
  0.4972762415730689  0.5006130279608733  0.0000967487143100
  0.4944542882676193  0.2468070787332039  0.7552787686453901
  0.0070580985589865  0.4997392622312856  0.5005833343066046
  0.4958541553669084  0.7530821064553727  0.7470547681171276
 -0.0115119679727485  0.2373127266135658  0.2587926550462792
  0.7681316616112643  0.7444142199481295 -0.0027554043127574
  0.0186572547102509  0.2626626226349915  0.7456917345394507
  0.7645454314008393  0.2592394730175585  0.4854518089573381
  0.0026496291125739  0.7352128450275097  0.7523626639512555
  0.2537778537066032  0.4993774347795725  0.7535461682555927
  0.2685743859012842  0.2604822702209942 -0.0060380439904283
  0.4912835408735056  0.2608355203773590  0.2329353219782009
  0.7650060627044343 -0.0008415950150680  0.2295256274914048
  0.7223686970272587  0.2508080943833875  0.0157085779498327
  0.2340275048831512  0.7349866351274237  0.0047784915184465
  0.2409466456176922  0.2451649213331377  0.5182150216233137
  0.2571891805303993  0.7557346951065904  0.4928166210763911
  0.2457806872085056  0.2494927570513513  0.2472078020186672
  0.2494335781138338  0.0045358966699383  0.0037065626380800
  0.0002210519414541  0.2460518371699515  0.0008613542030873
  0.7363586721046210  0.2395523583251973  0.2448653729800195
  0.7559772118799829  0.0047014470444182  0.0059333069122578
  0.5000920317651654  0.0080830714311709  0.2502701488394373
  0.0001659767760621  0.4963202648555478  0.2524022191131377
  0.4996050333597146  0.7515129690833633 -0.0039510345427013
 -0.0021272211231244  0.0030987208722395  0.7543112902321947
  0.7525765139543795  0.2468828194071684  0.7442153984161376
  0.7512031781342972  0.0027568609633197  0.5026536346498538
  0.5040474459266472  0.2498051112585208  0.5004268126341640
  0.5009805289939647  0.0006852550440851  0.7491383946311377
  0.0014431879622311 -0.0005989030304814  0.2489932218245575
  0.4960042345250762  0.2570967618181582 -0.0014840292690616
  0.2497862083800866  0.7503464510937675  0.2478037071063183
  0.2524752002857267  0.4993609983033883  0.0030787189926798
  0.0073490850056370  0.7539864424586210 -0.0000066470709318
  0.7504560709929065  0.7546382649363804  0.2471680939566999
  0.7457964645351193  0.4940512020693243 -0.0006670698130140
  0.4948384359161263  0.4954788103661313  0.2467703734991488
  0.2560626612967555  0.2502790457501469  0.7556712548912220
  0.2491857642865228  0.0020604646124173  0.4952925621588837
  0.0087921246016756  0.2541574594497245  0.5020179817461526
  0.2502359361616820  0.7474265906336660  0.7516898082824058
  0.2485160446741553  0.4982126746914593  0.5000838383186086
  0.0047108630582926  0.7489503769605398  0.5036606487214331
  0.0006124176893250  0.4986006188969195  0.7449983463518280
  0.7469741633715112  0.7492322565731984  0.7515050369329470
  0.7527789088704012  0.4985956441580951  0.4981274417189165
  0.4949216115618463  0.7487999669250767  0.5030018496297616
  0.4978555841845670  0.4992463213810973  0.7514983086964487
  0.4966607177247402  0.0064470621847708  0.0052586681389766
  0.0016160861949917  0.4975216553567957 -0.0026011453932953
  0.4938526943319975  0.7455131440192508  0.2511836885220660
  0.2558189107865964 -0.0019874661543064  0.7461663142891317
  0.4912582088550596 -0.0020984540207478  0.4933258651020107
  0.7438894829149328 -0.0044156472252291  0.7660086369716189
  0.0052394755576346  0.7570560725477321  0.2515561490632321
  0.7433990033192317  0.4971643865399294  0.2478117978518383
  0.0063151936616083  0.0023056817329973  0.4979832487942843
  0.4927834643061814  0.4989423474819811  0.4989248213593468
  0.7429207982464653  0.4986124228213249  0.7505972597889171
  0.7452359707489398  0.7459961535026909  0.5001830657798003
 
  0.00000000E+00  0.00000000E+00  0.00000000E+00
  0.00000000E+00  0.00000000E+00  0.00000000E+00
  0.00000000E+00  0.00000000E+00  0.00000000E+00
  0.00000000E+00  0.00000000E+00  0.00000000E+00
  0.00000000E+00  0.00000000E+00  0.00000000E+00
  0.00000000E+00  0.00000000E+00  0.00000000E+00
  0.00000000E+00  0.00000000E+00  0.00000000E+00
  0.00000000E+00  0.00000000E+00  0.00000000E+00
  0.00000000E+00  0.00000000E+00  0.00000000E+00
  0.00000000E+00  0.00000000E+00  0.00000000E+00
  0.00000000E+00  0.00000000E+00  0.00000000E+00
  0.00000000E+00  0.00000000E+00  0.00000000E+00
  0.00000000E+00  0.00000000E+00  0.00000000E+00
  0.00000000E+00  0.00000000E+00  0.00000000E+00
  0.00000000E+00  0.00000000E+00  0.00000000E+00
  0.00000000E+00  0.00000000E+00  0.00000000E+00
  0.00000000E+00  0.00000000E+00  0.00000000E+00
  0.00000000E+00  0.00000000E+00  0.00000000E+00
  0.00000000E+00  0.00000000E+00  0.00000000E+00
  0.00000000E+00  0.00000000E+00  0.00000000E+00
  0.00000000E+00  0.00000000E+00  0.00000000E+00
  0.00000000E+00  0.00000000E+00  0.00000000E+00
  0.00000000E+00  0.00000000E+00  0.00000000E+00
  0.00000000E+00  0.00000000E+00  0.00000000E+00
  0.00000000E+00  0.00000000E+00  0.00000000E+00
  0.00000000E+00  0.00000000E+00  0.00000000E+00
  0.00000000E+00  0.00000000E+00  0.00000000E+00
  0.00000000E+00  0.00000000E+00  0.00000000E+00
  0.00000000E+00  0.00000000E+00  0.00000000E+00
  0.00000000E+00  0.00000000E+00  0.00000000E+00
  0.00000000E+00  0.00000000E+00  0.00000000E+00
  0.00000000E+00  0.00000000E+00  0.00000000E+00
  0.00000000E+00  0.00000000E+00  0.00000000E+00
  0.00000000E+00  0.00000000E+00  0.00000000E+00
  0.00000000E+00  0.00000000E+00  0.00000000E+00
  0.00000000E+00  0.00000000E+00  0.00000000E+00
  0.00000000E+00  0.00000000E+00  0.00000000E+00
  0.00000000E+00  0.00000000E+00  0.00000000E+00
  0.00000000E+00  0.00000000E+00  0.00000000E+00
  0.00000000E+00  0.00000000E+00  0.00000000E+00
  0.00000000E+00  0.00000000E+00  0.00000000E+00
  0.00000000E+00  0.00000000E+00  0.00000000E+00
  0.00000000E+00  0.00000000E+00  0.00000000E+00
  0.00000000E+00  0.00000000E+00  0.00000000E+00
  0.00000000E+00  0.00000000E+00  0.00000000E+00
  0.00000000E+00  0.00000000E+00  0.00000000E+00
  0.00000000E+00  0.00000000E+00  0.00000000E+00
  0.00000000E+00  0.00000000E+00  0.00000000E+00
  0.00000000E+00  0.00000000E+00  0.00000000E+00
  0.00000000E+00  0.00000000E+00  0.00000000E+00
  0.00000000E+00  0.00000000E+00  0.00000000E+00
  0.00000000E+00  0.00000000E+00  0.00000000E+00
  0.00000000E+00  0.00000000E+00  0.00000000E+00
  0.00000000E+00  0.00000000E+00  0.00000000E+00
  0.00000000E+00  0.00000000E+00  0.00000000E+00
  0.00000000E+00  0.00000000E+00  0.00000000E+00
  0.00000000E+00  0.00000000E+00  0.00000000E+00
  0.00000000E+00  0.00000000E+00  0.00000000E+00
  0.00000000E+00  0.00000000E+00  0.00000000E+00
  0.00000000E+00  0.00000000E+00  0.00000000E+00
  0.00000000E+00  0.00000000E+00  0.00000000E+00
  0.00000000E+00  0.00000000E+00  0.00000000E+00
  0.00000000E+00  0.00000000E+00  0.00000000E+00
  0.00000000E+00  0.00000000E+00  0.00000000E+00
