TiZrHfNbMo                              
   1.00000000000000     
     8.9947730299547803    0.0068102304513196   -0.0005546997058306
     0.0067935778374487    9.0706904670254982   -0.0072255204449040
    -0.0005485683060847   -0.0072251915758132    8.9493690062432822
  Ti              Nb              Hf              N               C               Zr              Mo            
     7     6     6    13    19     7     6
Direct
  0.9963782083198423  0.9937761927651650  0.0071393539472858
  0.2400956437688260  0.9935014107786987  0.2516683027657902
  0.2624413068902557  0.5046821280734489  0.2499345080781774
  0.4991387019224350  0.5006655815698491  0.9988097046053678
  0.4941979448951430  0.2628829019137197  0.7495728881221152
  0.0130270106697548  0.4973954668891884  0.4911335042708279
  0.5023774227994341  0.7364210799583650  0.7481330025154173
  0.9963573864891633  0.2410092581226036  0.2605611060688477
  0.7570446787712125  0.7445185158136849  0.0033909090294087
  0.0037540771105165  0.2683934323690420  0.7390787268851564
  0.7553035567294295  0.2734386095044127  0.5046665324522489
  0.9949896313962157  0.7318027221992454  0.7414227181954859
  0.2583483492579007  0.5005783343595899  0.7494321089489443
  0.2460486339548536  0.2513716657078534  0.0025077555064891
  0.5025896626685821  0.2548308989246947  0.2504373563030340
  0.7551888391714133  0.9952542709969832  0.2577982069516058
  0.7522887502094604  0.2524690221451305  0.9934186686335600
  0.2453050186053737  0.7499824994576357  0.0005496862128183
  0.2500435006061976  0.2515716615501319  0.4975146381855617
  0.2520992229625265  0.2483488761845702  0.2498475749105692
  0.2462306118277149  0.0009056802141084  0.0062655516279237
  0.0002033738961357  0.2458206234940008  0.0014699343382388
  0.7492376634876660  0.2460910784196065  0.2501857243537134
  0.7552314857107294  0.0034380939429993  0.0008538227773063
  0.5025653339026204  0.0040160171201032  0.2483460184896452
  0.0043842889744238  0.4954241214676477  0.2585717857054400
  0.4971371431300264  0.7468400333236267  0.9944382811095026
  0.9971218369882917  0.0021907423916739  0.7551538916563288
  0.7453961556138160  0.2467308251925487  0.7493874610628767
  0.7507234315522038  0.0089087453765295  0.4974464647067602
  0.5014502053345752  0.2493520112700344  0.5027484661246734
  0.5033557705883409  0.0000544610203764  0.7506246486352188
  0.0030239066356829  0.0020428723209895  0.2457782614969196
  0.5003545572497851  0.2533307679803767  0.9962769401824449
  0.2440940854198768  0.7511875838806922  0.2479981572067611
  0.2542810339939974  0.4998055680456147  0.0051439060371900
  0.9979775356635154  0.7562587804703000  0.0022614234063532
  0.7548335227816129  0.7431518102935104  0.2516132576812947
  0.7428785544343548  0.5000746782118225  0.0023568684270023
  0.4951896201492842  0.4984899508121394  0.2473716823092678
  0.2534311305781295  0.2529731153770029  0.7497573968788132
  0.2464336204981968  0.0030007709928090  0.4923305829884067
  0.0007076541025385  0.2539165316305316  0.5000718651537374
  0.2516235429374200  0.7469396619953289  0.7524865570957697
  0.2525099706812668  0.4981704882723272  0.4945705599798191
  0.9938946005839600  0.7514027686565902  0.4983158721541371
  0.9973894963794920  0.4997817199283929  0.7431284935298528
  0.7449602391540385  0.7426276850919284  0.7500554728729835
  0.7577578011072342  0.5013862576025742  0.4989364146822026
  0.5052462582740136  0.7438382216280852  0.5078867808827335
  0.5021193591586124  0.4994130042002185  0.7522445611671423
  0.5009756484010098  0.9995921665775853  0.9957078891011766
  0.9997258459752173  0.5031340221623792  0.0101388183155193
  0.5001231598909047  0.7456946381859197  0.2504129526462664
  0.2420832152704609  0.9995834199391812  0.7503701271366928
  0.4946400191271810  0.9952565496542987  0.5034675446440883
  0.7569951814339350  0.9906334169955957  0.7409502673458532
  0.2469631794445550  0.7481605788879067  0.5002634901739366
  0.9985521790253866  0.7704722252908404  0.2597162252066179
  0.7284329154415160  0.5061341862477676  0.2402842309144453
  0.0120389746524340  0.0051540327199172  0.4867380127667357
  0.4990163495317870  0.5064342678730223  0.5019099304105795
  0.7380856385498162  0.5081449561775968  0.7633871788777551
  0.7536070272677603  0.7211470113795458  0.4955596471512193
 
  0.00000000E+00  0.00000000E+00  0.00000000E+00
  0.00000000E+00  0.00000000E+00  0.00000000E+00
  0.00000000E+00  0.00000000E+00  0.00000000E+00
  0.00000000E+00  0.00000000E+00  0.00000000E+00
  0.00000000E+00  0.00000000E+00  0.00000000E+00
  0.00000000E+00  0.00000000E+00  0.00000000E+00
  0.00000000E+00  0.00000000E+00  0.00000000E+00
  0.00000000E+00  0.00000000E+00  0.00000000E+00
  0.00000000E+00  0.00000000E+00  0.00000000E+00
  0.00000000E+00  0.00000000E+00  0.00000000E+00
  0.00000000E+00  0.00000000E+00  0.00000000E+00
  0.00000000E+00  0.00000000E+00  0.00000000E+00
  0.00000000E+00  0.00000000E+00  0.00000000E+00
  0.00000000E+00  0.00000000E+00  0.00000000E+00
  0.00000000E+00  0.00000000E+00  0.00000000E+00
  0.00000000E+00  0.00000000E+00  0.00000000E+00
  0.00000000E+00  0.00000000E+00  0.00000000E+00
  0.00000000E+00  0.00000000E+00  0.00000000E+00
  0.00000000E+00  0.00000000E+00  0.00000000E+00
  0.00000000E+00  0.00000000E+00  0.00000000E+00
  0.00000000E+00  0.00000000E+00  0.00000000E+00
  0.00000000E+00  0.00000000E+00  0.00000000E+00
  0.00000000E+00  0.00000000E+00  0.00000000E+00
  0.00000000E+00  0.00000000E+00  0.00000000E+00
  0.00000000E+00  0.00000000E+00  0.00000000E+00
  0.00000000E+00  0.00000000E+00  0.00000000E+00
  0.00000000E+00  0.00000000E+00  0.00000000E+00
  0.00000000E+00  0.00000000E+00  0.00000000E+00
  0.00000000E+00  0.00000000E+00  0.00000000E+00
  0.00000000E+00  0.00000000E+00  0.00000000E+00
  0.00000000E+00  0.00000000E+00  0.00000000E+00
  0.00000000E+00  0.00000000E+00  0.00000000E+00
  0.00000000E+00  0.00000000E+00  0.00000000E+00
  0.00000000E+00  0.00000000E+00  0.00000000E+00
  0.00000000E+00  0.00000000E+00  0.00000000E+00
  0.00000000E+00  0.00000000E+00  0.00000000E+00
  0.00000000E+00  0.00000000E+00  0.00000000E+00
  0.00000000E+00  0.00000000E+00  0.00000000E+00
  0.00000000E+00  0.00000000E+00  0.00000000E+00
  0.00000000E+00  0.00000000E+00  0.00000000E+00
  0.00000000E+00  0.00000000E+00  0.00000000E+00
  0.00000000E+00  0.00000000E+00  0.00000000E+00
  0.00000000E+00  0.00000000E+00  0.00000000E+00
  0.00000000E+00  0.00000000E+00  0.00000000E+00
  0.00000000E+00  0.00000000E+00  0.00000000E+00
  0.00000000E+00  0.00000000E+00  0.00000000E+00
  0.00000000E+00  0.00000000E+00  0.00000000E+00
  0.00000000E+00  0.00000000E+00  0.00000000E+00
  0.00000000E+00  0.00000000E+00  0.00000000E+00
  0.00000000E+00  0.00000000E+00  0.00000000E+00
  0.00000000E+00  0.00000000E+00  0.00000000E+00
  0.00000000E+00  0.00000000E+00  0.00000000E+00
  0.00000000E+00  0.00000000E+00  0.00000000E+00
  0.00000000E+00  0.00000000E+00  0.00000000E+00
  0.00000000E+00  0.00000000E+00  0.00000000E+00
  0.00000000E+00  0.00000000E+00  0.00000000E+00
  0.00000000E+00  0.00000000E+00  0.00000000E+00
  0.00000000E+00  0.00000000E+00  0.00000000E+00
  0.00000000E+00  0.00000000E+00  0.00000000E+00
  0.00000000E+00  0.00000000E+00  0.00000000E+00
  0.00000000E+00  0.00000000E+00  0.00000000E+00
  0.00000000E+00  0.00000000E+00  0.00000000E+00
  0.00000000E+00  0.00000000E+00  0.00000000E+00
  0.00000000E+00  0.00000000E+00  0.00000000E+00
