35-TiNbTaMoW                            
   1.00000000000000     
     8.8033304852537988   -0.0035292640069880    0.0320511732698395
    -0.0035392978474246    8.8167790726577042    0.0039885040192885
     0.0318519279596926    0.0039281705399420    8.8033203202749739
   Ti   Mo   Nb   N    C    Ta   W 
     7     6     7    13    19     6     6
Direct
 -0.0050749919540100 -0.0004802214660059  0.0007004632458769
  0.2479644730115585 -0.0010143258459958  0.2522702538952039
  0.2565534083429504  0.4998650036449961  0.2506911082674533
  0.4979424324836290  0.4950967441194294 -0.0034667177937056
  0.4988619899320171  0.2554294106492467  0.7531834684913983
  0.0013414282625567  0.4976167668147778  0.5024475700511890
  0.4956835243580985  0.7453620579568064  0.7473767138799590
  0.0019346479520997  0.2277091846257695  0.2693548464601317
  0.7692274841508294  0.7421597397972518 -0.0145950704969044
  0.0226453989220117  0.2637085495878552  0.7535857913393944
  0.7622181232090539  0.2678492854179648  0.4727569434500247
 -0.0068392423237591  0.7357534641759516  0.7601467238500722
  0.2524561894716896  0.4955681164197233  0.7519116122546314
  0.2555581965077440  0.2544798353091795 -0.0067141419369881
  0.5050460759675423  0.2529121047832474  0.2421185806736116
  0.7469643876975862 -0.0047773350886244  0.2466405187057316
  0.7414908190843771  0.2574107051087055 -0.0084916022271224
  0.2416392149315332  0.7440140733633229  0.0033014735185719
  0.2451399099149527  0.2525050091810925  0.5045119407091733
  0.2466925144766759  0.7488720178499710  0.4981083704557209
  0.2514037320262422  0.2496429992259785  0.2510343785971241
  0.2520825184563251  0.0003177661090809  0.0005382712030361
 -0.0012840350556742  0.2489279012539918  0.0111441817825829
  0.7639669971968500  0.2548231557673151  0.2350584786654901
  0.7534242145713854  0.0021434900505259 -0.0057698921245734
  0.4921282941898611 -0.0026851582146568  0.2499203411179912
 -0.0009693662982957  0.5007045671454671  0.2524019083941790
  0.4982488606640435  0.7553513392607135 -0.0017498602700309
 -0.0026165850085848  0.0002518145967751  0.7521259339416755
  0.7462899595874007  0.2421896709351369  0.7476310634103348
  0.7475676339340164  0.0007779089768166  0.5031500881377631
  0.5033769237178680  0.2458521540242546  0.5013011820865376
  0.5002325360031918  0.0003109310704664  0.7500888856701826
  0.0018224650141569 -0.0021233151251857  0.2508361605002094
  0.4990056543646704  0.2562119197429861 -0.0071634708558484
  0.2488986684608811  0.7486260833201464  0.2497148823083270
  0.2496678962560345  0.4991978768682144  0.0050768404576892
  0.0005891752395823  0.7516521763719194  0.0093495585892366
  0.7524883277471212  0.7446897284720898  0.2412575814575145
  0.7464481169996482  0.5039454797370072  0.0050491054938458
  0.4926559958659232  0.4986050935971537  0.2489839819577523
  0.2611755895499070  0.2488312816171572  0.7483056968291972
  0.2511485857931326  0.0008963792875067  0.4958567592880789
 -0.0070280862815377  0.2506048796612188  0.5142489958209225
  0.2482579683218785  0.7494296146584102  0.7525848026018196
  0.2491211270762866  0.4993570359987848  0.4979405414592973
 -0.0056462414314058  0.7505829245866816  0.5052832387455283
 -0.0058559520785199  0.4965883500891805  0.7508365777804160
  0.7422724449881426  0.7506359777078744  0.7390625351014936
  0.7514189330039595  0.4989105527807550  0.5070775013896055
  0.5012272850249302  0.7501842827176078  0.5035339468322296
  0.4999480507652725  0.5011862319194154  0.7500143733775635
  0.5054732699827603  0.0095028162405861  0.0028102984481409
 -0.0008458422899853  0.4997555925328085  0.0020386407967511
  0.4976681137808867  0.7439724213014770  0.2525235230483309
  0.2416131358779579 -0.0015232558533109  0.7468473014508052
  0.4911993130924536 -0.0074663596653056  0.4990946917052939
  0.7569728208901634 -0.0115207249194221  0.7477606122528120
  0.0062627879096304  0.7677757189331116  0.2580499464905093
  0.7316219613772190  0.4986106528004624  0.2543925286896408
  0.0161559986482294  0.0038996367243001  0.4997304395234876
  0.4977102057016067  0.5126923647555437  0.5032485383229476
  0.7437325186303317  0.5204257069817829  0.7572628557158240
  0.7535227153349712  0.7372148215525687  0.4856778790149202
 
  0.00000000E+00  0.00000000E+00  0.00000000E+00
  0.00000000E+00  0.00000000E+00  0.00000000E+00
  0.00000000E+00  0.00000000E+00  0.00000000E+00
  0.00000000E+00  0.00000000E+00  0.00000000E+00
  0.00000000E+00  0.00000000E+00  0.00000000E+00
  0.00000000E+00  0.00000000E+00  0.00000000E+00
  0.00000000E+00  0.00000000E+00  0.00000000E+00
  0.00000000E+00  0.00000000E+00  0.00000000E+00
  0.00000000E+00  0.00000000E+00  0.00000000E+00
  0.00000000E+00  0.00000000E+00  0.00000000E+00
  0.00000000E+00  0.00000000E+00  0.00000000E+00
  0.00000000E+00  0.00000000E+00  0.00000000E+00
  0.00000000E+00  0.00000000E+00  0.00000000E+00
  0.00000000E+00  0.00000000E+00  0.00000000E+00
  0.00000000E+00  0.00000000E+00  0.00000000E+00
  0.00000000E+00  0.00000000E+00  0.00000000E+00
  0.00000000E+00  0.00000000E+00  0.00000000E+00
  0.00000000E+00  0.00000000E+00  0.00000000E+00
  0.00000000E+00  0.00000000E+00  0.00000000E+00
  0.00000000E+00  0.00000000E+00  0.00000000E+00
  0.00000000E+00  0.00000000E+00  0.00000000E+00
  0.00000000E+00  0.00000000E+00  0.00000000E+00
  0.00000000E+00  0.00000000E+00  0.00000000E+00
  0.00000000E+00  0.00000000E+00  0.00000000E+00
  0.00000000E+00  0.00000000E+00  0.00000000E+00
  0.00000000E+00  0.00000000E+00  0.00000000E+00
  0.00000000E+00  0.00000000E+00  0.00000000E+00
  0.00000000E+00  0.00000000E+00  0.00000000E+00
  0.00000000E+00  0.00000000E+00  0.00000000E+00
  0.00000000E+00  0.00000000E+00  0.00000000E+00
  0.00000000E+00  0.00000000E+00  0.00000000E+00
  0.00000000E+00  0.00000000E+00  0.00000000E+00
  0.00000000E+00  0.00000000E+00  0.00000000E+00
  0.00000000E+00  0.00000000E+00  0.00000000E+00
  0.00000000E+00  0.00000000E+00  0.00000000E+00
  0.00000000E+00  0.00000000E+00  0.00000000E+00
  0.00000000E+00  0.00000000E+00  0.00000000E+00
  0.00000000E+00  0.00000000E+00  0.00000000E+00
  0.00000000E+00  0.00000000E+00  0.00000000E+00
  0.00000000E+00  0.00000000E+00  0.00000000E+00
  0.00000000E+00  0.00000000E+00  0.00000000E+00
  0.00000000E+00  0.00000000E+00  0.00000000E+00
  0.00000000E+00  0.00000000E+00  0.00000000E+00
  0.00000000E+00  0.00000000E+00  0.00000000E+00
  0.00000000E+00  0.00000000E+00  0.00000000E+00
  0.00000000E+00  0.00000000E+00  0.00000000E+00
  0.00000000E+00  0.00000000E+00  0.00000000E+00
  0.00000000E+00  0.00000000E+00  0.00000000E+00
  0.00000000E+00  0.00000000E+00  0.00000000E+00
  0.00000000E+00  0.00000000E+00  0.00000000E+00
  0.00000000E+00  0.00000000E+00  0.00000000E+00
  0.00000000E+00  0.00000000E+00  0.00000000E+00
  0.00000000E+00  0.00000000E+00  0.00000000E+00
  0.00000000E+00  0.00000000E+00  0.00000000E+00
  0.00000000E+00  0.00000000E+00  0.00000000E+00
  0.00000000E+00  0.00000000E+00  0.00000000E+00
  0.00000000E+00  0.00000000E+00  0.00000000E+00
  0.00000000E+00  0.00000000E+00  0.00000000E+00
  0.00000000E+00  0.00000000E+00  0.00000000E+00
  0.00000000E+00  0.00000000E+00  0.00000000E+00
  0.00000000E+00  0.00000000E+00  0.00000000E+00
  0.00000000E+00  0.00000000E+00  0.00000000E+00
  0.00000000E+00  0.00000000E+00  0.00000000E+00
  0.00000000E+00  0.00000000E+00  0.00000000E+00
