64-TiZrTaCrW                            
   1.00000000000000     
     8.8138572375068840    0.0235769823309853   -0.0141679711481466
     0.0301211032779577    8.8140495188936701    0.0053693456467717
     0.0174728515543712   -0.0098687421447223    8.7999753308230027
  Zr              Ta              Ti              N               C               Cr              W             
     7     6     7    13    19     6     6
Direct
  0.0007974646052561  0.9969653298983348  0.9967402768465534
  0.2688728812235334  0.0023988567597358  0.2427380758826380
  0.2454071786094033  0.4947733807017325  0.2462086411389862
  0.5006654881149901  0.4996282939527770  0.0023173460420284
  0.5059476641440129  0.2474066851838141  0.7420848753420372
  0.9975203719336059  0.5021609941276786  0.5010858514991433
  0.4966163649379754  0.7591337631403394  0.7493190954050506
  0.9918071946361051  0.2402074652073369  0.2496707990947200
  0.7543548039269284  0.7464979568648018  0.0120206584222287
  0.0016975113156136  0.2500435277986833  0.7511455177164307
  0.7523082742618955  0.2443294894619567  0.4976383584852620
  0.0001225329178200  0.7508987750437096  0.7495802666848014
  0.2494421046537056  0.4953458980044825  0.7503435986691488
  0.2596619159582350  0.2422769432765219  0.9896275029415406
  0.5108909782580952  0.2543997138114727  0.2523621269799727
  0.7319517903005057  0.9927297057672088  0.2593455866501269
  0.7412090057882311  0.2410544641259297  0.9997933758486485
  0.2468118244792995  0.7471683811248504  0.9963951614472316
  0.2510373080455195  0.2459651381337417  0.5063930999469435
  0.2509317933337944  0.7513791001509816  0.5022368548056565
  0.2473413472209042  0.2481244716072371  0.2475044253621790
  0.2612115284436948  0.0008190606623293  0.9893980124481737
  0.0004703781961520  0.2546733021621523  0.0001035292669035
  0.7472615572252524  0.2404534370167825  0.2464212518607118
  0.7396990500991059  0.9975827048393366  0.0058291473674960
  0.5113461862847932  0.0004074404697441  0.2786812542137734
  0.9910970895196412  0.4993618043255759  0.2419729080847864
  0.4990544921901237  0.7643538260890957  0.0087603789391588
  0.9884594606774783  0.0042082956075682  0.7399293708641245
  0.7575894497079291  0.2489833849540025  0.7500970357600965
  0.7633652866085202  0.0049830465877724  0.4931821215819010
  0.5010563888355317  0.2460846990515176  0.4892085535000529
  0.5258930626303258  0.0024770506581280  0.7414430794188166
  0.9983831829294846  0.0004744208066435  0.2531106589365884
  0.5009069343933121  0.2377471123448489  0.0039197846396818
  0.2535545728361821  0.7497438090136399  0.2491598907335597
  0.2399194791263354  0.5006935676776448  0.9931428663632013
  0.0027495633590874  0.7405678096191919  0.0043111816101712
  0.7478972101576290  0.7462137880425036  0.2534357378441687
  0.7633669263848064  0.4933983585758054  0.0058560045211506
  0.5000349006802121  0.5022976913295418  0.2529943350106257
  0.2482561817892378  0.2476379478209306  0.7490364204788597
  0.2549203537508014  0.9996835894225131  0.5126648486341499
  0.0036255800987649  0.2464548792749601  0.4999410784964169
  0.2420950985034998  0.7565884548920697  0.7512141329354641
  0.2566479726145038  0.5019698901733401  0.5025955832581535
  0.9986916060124414  0.7594678851138899  0.4994955287271947
  0.9998830966196065  0.5011970393685855  0.7555561368371335
  0.7522683912551072  0.7546607829625593  0.7501018550568420
  0.7429543349550362  0.4951025745418662  0.5070983896310465
  0.4980108098032656  0.7656681663479161  0.4868396715457430
  0.5040911735239382  0.5030862900462144  0.7415610143983616
  0.5140203479884293  0.0118682660435593  0.9631485404604879
  0.9970458239946529  0.5148220125228971  0.9796731295089376
  0.4756819981790339  0.7361925402204986  0.2565013238551540
  0.2268216062646547  0.0150394610029446  0.7516235312752870
  0.4674255381444422  0.9948434676237129  0.5189566320771101
  0.7397212028583416  0.9701054444256404  0.7815980026242397
  0.0171065192490600  0.7673129528656878  0.2551825121216560
  0.7389630540029687  0.4941383353312735  0.2539243151167399
  0.0218397658907764  0.0038118536019612  0.4954854731949386
  0.5027859781377615  0.5193243733945423  0.4886721454109237
  0.7547460629107522  0.5162930531421306  0.7636202835957737
  0.7436853805017857  0.7363175468831666  0.4900009885828563
 
  0.00000000E+00  0.00000000E+00  0.00000000E+00
  0.00000000E+00  0.00000000E+00  0.00000000E+00
  0.00000000E+00  0.00000000E+00  0.00000000E+00
  0.00000000E+00  0.00000000E+00  0.00000000E+00
  0.00000000E+00  0.00000000E+00  0.00000000E+00
  0.00000000E+00  0.00000000E+00  0.00000000E+00
  0.00000000E+00  0.00000000E+00  0.00000000E+00
  0.00000000E+00  0.00000000E+00  0.00000000E+00
  0.00000000E+00  0.00000000E+00  0.00000000E+00
  0.00000000E+00  0.00000000E+00  0.00000000E+00
  0.00000000E+00  0.00000000E+00  0.00000000E+00
  0.00000000E+00  0.00000000E+00  0.00000000E+00
  0.00000000E+00  0.00000000E+00  0.00000000E+00
  0.00000000E+00  0.00000000E+00  0.00000000E+00
  0.00000000E+00  0.00000000E+00  0.00000000E+00
  0.00000000E+00  0.00000000E+00  0.00000000E+00
  0.00000000E+00  0.00000000E+00  0.00000000E+00
  0.00000000E+00  0.00000000E+00  0.00000000E+00
  0.00000000E+00  0.00000000E+00  0.00000000E+00
  0.00000000E+00  0.00000000E+00  0.00000000E+00
  0.00000000E+00  0.00000000E+00  0.00000000E+00
  0.00000000E+00  0.00000000E+00  0.00000000E+00
  0.00000000E+00  0.00000000E+00  0.00000000E+00
  0.00000000E+00  0.00000000E+00  0.00000000E+00
  0.00000000E+00  0.00000000E+00  0.00000000E+00
  0.00000000E+00  0.00000000E+00  0.00000000E+00
  0.00000000E+00  0.00000000E+00  0.00000000E+00
  0.00000000E+00  0.00000000E+00  0.00000000E+00
  0.00000000E+00  0.00000000E+00  0.00000000E+00
  0.00000000E+00  0.00000000E+00  0.00000000E+00
  0.00000000E+00  0.00000000E+00  0.00000000E+00
  0.00000000E+00  0.00000000E+00  0.00000000E+00
  0.00000000E+00  0.00000000E+00  0.00000000E+00
  0.00000000E+00  0.00000000E+00  0.00000000E+00
  0.00000000E+00  0.00000000E+00  0.00000000E+00
  0.00000000E+00  0.00000000E+00  0.00000000E+00
  0.00000000E+00  0.00000000E+00  0.00000000E+00
  0.00000000E+00  0.00000000E+00  0.00000000E+00
  0.00000000E+00  0.00000000E+00  0.00000000E+00
  0.00000000E+00  0.00000000E+00  0.00000000E+00
  0.00000000E+00  0.00000000E+00  0.00000000E+00
  0.00000000E+00  0.00000000E+00  0.00000000E+00
  0.00000000E+00  0.00000000E+00  0.00000000E+00
  0.00000000E+00  0.00000000E+00  0.00000000E+00
  0.00000000E+00  0.00000000E+00  0.00000000E+00
  0.00000000E+00  0.00000000E+00  0.00000000E+00
  0.00000000E+00  0.00000000E+00  0.00000000E+00
  0.00000000E+00  0.00000000E+00  0.00000000E+00
  0.00000000E+00  0.00000000E+00  0.00000000E+00
  0.00000000E+00  0.00000000E+00  0.00000000E+00
  0.00000000E+00  0.00000000E+00  0.00000000E+00
  0.00000000E+00  0.00000000E+00  0.00000000E+00
  0.00000000E+00  0.00000000E+00  0.00000000E+00
  0.00000000E+00  0.00000000E+00  0.00000000E+00
  0.00000000E+00  0.00000000E+00  0.00000000E+00
  0.00000000E+00  0.00000000E+00  0.00000000E+00
  0.00000000E+00  0.00000000E+00  0.00000000E+00
  0.00000000E+00  0.00000000E+00  0.00000000E+00
  0.00000000E+00  0.00000000E+00  0.00000000E+00
  0.00000000E+00  0.00000000E+00  0.00000000E+00
  0.00000000E+00  0.00000000E+00  0.00000000E+00
  0.00000000E+00  0.00000000E+00  0.00000000E+00
  0.00000000E+00  0.00000000E+00  0.00000000E+00
  0.00000000E+00  0.00000000E+00  0.00000000E+00
