39-ZrHfVTaMo                            
   1.00000000000000     
     8.9226897824721743    0.0075604339097766    0.0112012242794858
     0.0075714341241943    9.0403308529405741   -0.0082989542309189
     0.0112151204709600   -0.0082542904049501    8.9508165975456535
   Zr   Ta   Hf   N    C    Mo   V 
     7     6     7    13    19     6     6
Direct
 -0.0031639417808496 -0.0080638478409183 -0.0013638774185594
  0.2554357019266781 -0.0035344836100083  0.2487653365891515
  0.2452905835806092  0.5023082492976718  0.2484088275779109
  0.5047492749558964  0.4983126219960006 -0.0008528222253455
  0.5041371481338127  0.2455217760457632  0.7468422456797238
 -0.0064253661071707  0.5043448782162225  0.4984826352663018
  0.5012018911753442  0.7558290196166371  0.7476009882963444
 -0.0061519457326407  0.2373548502777916  0.2636938532558342
  0.7553889196724514  0.7420895328297927  0.0112669669113914
  0.0023298852475781  0.2490468327255136  0.7383209566473580
  0.7512162884606769  0.2567942670798060  0.5064085450699305
 -0.0045410102366652  0.7487317041922430  0.7437317494345775
  0.2540981329711411  0.4971275368926141  0.7468714254051247
  0.2476607263671518  0.2479863869219254 -0.0044986916845269
  0.5077607475539377  0.2535466032104062  0.2528980262221242
  0.7467050331359795 -0.0127819897724989  0.2689062961989397
  0.7567079368991517  0.2544777353557274 -0.0053165828469844
  0.2496667442843458  0.7509258710334662 -0.0008009824922544
  0.2539191281536289  0.2488234822177155  0.5006537196953569
  0.2474215038152355  0.7504642413781198  0.4994087990991148
  0.2490741513884764  0.2493456002067014  0.2483019657471899
  0.2581342646079235  0.0002858254042439 -0.0034702405363541
  0.0023224468581651  0.2478073254135943 -0.0004118181775489
  0.7525164251053053  0.2455307345029009  0.2543112659879638
  0.7478600012054250 -0.0033314628638620  0.0132143281913181
  0.5064246719615991  0.0024597744198744  0.2476694642806788
 -0.0099153570406618  0.4790078802698198  0.2450796273883078
  0.5052255252401049  0.7572715828125020  0.0039493205567085
 -0.0099791092559369  0.0027624211013928  0.7370137319102096
  0.7568250863054569  0.2499350738300551  0.7490273773933255
  0.7412373362667830  0.0096307399551209  0.5064343536663543
  0.5048940713278425  0.2440514658162859  0.4958507187489439
  0.5063181674405990  0.0013631858665138  0.7338098590311481
 -0.0029028165126992 -0.0023369734405862  0.2586792456490766
  0.5036157325679398  0.2492608392865530  0.0017209292849804
  0.2456117323062926  0.7491324995464569  0.2490792536686499
  0.2452736113584234  0.5015143291038827 -0.0048935845760240
 -0.0020290206197178  0.7445750210624698  0.0021626391533707
  0.7587466123765153  0.7377660930808646  0.2576029912679517
  0.7574196736783261  0.5034731211260912  0.0035786367226503
  0.5079011895101800  0.5025784934947427  0.2597133005148294
  0.2484072316070758  0.2561497072522548  0.7483025587525762
  0.2412138402371980 -0.0016035756276402  0.5027762353465114
 -0.0014101506157065  0.2423254538234218  0.5007706715364020
  0.2420516199840377  0.7501647139221996  0.7497539988363331
  0.2576458502887655  0.5008403491207315  0.5007886880081169
 -0.0098211120464402  0.7620353122224180  0.4971371953405102
 -0.0069909055645640  0.5005078435535761  0.7497387600028114
  0.7515909692492428  0.7463626918156927  0.7479277671724694
  0.7403317383922173  0.5014887656325364  0.5011647017808060
  0.5072949784589456  0.7479146969423832  0.4983666796047462
  0.5046539301362413  0.5028162209567222  0.7396851845434136
  0.5136991699328385  0.0134527637496974 -0.0184034042417553
 -0.0027975441708121  0.5110179032551094 -0.0177503367694662
  0.5056638140148516  0.7420836056021297  0.2608505693107885
  0.2431944965872695  0.0097194238683077  0.7479678571704402
  0.4768500049414308 -0.0165532435804866  0.4993734749744034
  0.7430229161340397 -0.0224433932366834  0.7690315949648129
  0.0002846343078891  0.7752387196360934  0.2620444265298141
  0.7364061039651781  0.5143442594020701  0.2669084953766801
  0.0217692779310007 -0.0014484115805828  0.4954953768856356
  0.5061977482881004  0.5225729251466988  0.4995083215616322
  0.7442369811943750  0.5251492218961042  0.7409427545152674
  0.7485233001942448  0.7264758801676892  0.4897683202418614
 
  0.00000000E+00  0.00000000E+00  0.00000000E+00
  0.00000000E+00  0.00000000E+00  0.00000000E+00
  0.00000000E+00  0.00000000E+00  0.00000000E+00
  0.00000000E+00  0.00000000E+00  0.00000000E+00
  0.00000000E+00  0.00000000E+00  0.00000000E+00
  0.00000000E+00  0.00000000E+00  0.00000000E+00
  0.00000000E+00  0.00000000E+00  0.00000000E+00
  0.00000000E+00  0.00000000E+00  0.00000000E+00
  0.00000000E+00  0.00000000E+00  0.00000000E+00
  0.00000000E+00  0.00000000E+00  0.00000000E+00
  0.00000000E+00  0.00000000E+00  0.00000000E+00
  0.00000000E+00  0.00000000E+00  0.00000000E+00
  0.00000000E+00  0.00000000E+00  0.00000000E+00
  0.00000000E+00  0.00000000E+00  0.00000000E+00
  0.00000000E+00  0.00000000E+00  0.00000000E+00
  0.00000000E+00  0.00000000E+00  0.00000000E+00
  0.00000000E+00  0.00000000E+00  0.00000000E+00
  0.00000000E+00  0.00000000E+00  0.00000000E+00
  0.00000000E+00  0.00000000E+00  0.00000000E+00
  0.00000000E+00  0.00000000E+00  0.00000000E+00
  0.00000000E+00  0.00000000E+00  0.00000000E+00
  0.00000000E+00  0.00000000E+00  0.00000000E+00
  0.00000000E+00  0.00000000E+00  0.00000000E+00
  0.00000000E+00  0.00000000E+00  0.00000000E+00
  0.00000000E+00  0.00000000E+00  0.00000000E+00
  0.00000000E+00  0.00000000E+00  0.00000000E+00
  0.00000000E+00  0.00000000E+00  0.00000000E+00
  0.00000000E+00  0.00000000E+00  0.00000000E+00
  0.00000000E+00  0.00000000E+00  0.00000000E+00
  0.00000000E+00  0.00000000E+00  0.00000000E+00
  0.00000000E+00  0.00000000E+00  0.00000000E+00
  0.00000000E+00  0.00000000E+00  0.00000000E+00
  0.00000000E+00  0.00000000E+00  0.00000000E+00
  0.00000000E+00  0.00000000E+00  0.00000000E+00
  0.00000000E+00  0.00000000E+00  0.00000000E+00
  0.00000000E+00  0.00000000E+00  0.00000000E+00
  0.00000000E+00  0.00000000E+00  0.00000000E+00
  0.00000000E+00  0.00000000E+00  0.00000000E+00
  0.00000000E+00  0.00000000E+00  0.00000000E+00
  0.00000000E+00  0.00000000E+00  0.00000000E+00
  0.00000000E+00  0.00000000E+00  0.00000000E+00
  0.00000000E+00  0.00000000E+00  0.00000000E+00
  0.00000000E+00  0.00000000E+00  0.00000000E+00
  0.00000000E+00  0.00000000E+00  0.00000000E+00
  0.00000000E+00  0.00000000E+00  0.00000000E+00
  0.00000000E+00  0.00000000E+00  0.00000000E+00
  0.00000000E+00  0.00000000E+00  0.00000000E+00
  0.00000000E+00  0.00000000E+00  0.00000000E+00
  0.00000000E+00  0.00000000E+00  0.00000000E+00
  0.00000000E+00  0.00000000E+00  0.00000000E+00
  0.00000000E+00  0.00000000E+00  0.00000000E+00
  0.00000000E+00  0.00000000E+00  0.00000000E+00
  0.00000000E+00  0.00000000E+00  0.00000000E+00
  0.00000000E+00  0.00000000E+00  0.00000000E+00
  0.00000000E+00  0.00000000E+00  0.00000000E+00
  0.00000000E+00  0.00000000E+00  0.00000000E+00
  0.00000000E+00  0.00000000E+00  0.00000000E+00
  0.00000000E+00  0.00000000E+00  0.00000000E+00
  0.00000000E+00  0.00000000E+00  0.00000000E+00
  0.00000000E+00  0.00000000E+00  0.00000000E+00
  0.00000000E+00  0.00000000E+00  0.00000000E+00
  0.00000000E+00  0.00000000E+00  0.00000000E+00
  0.00000000E+00  0.00000000E+00  0.00000000E+00
  0.00000000E+00  0.00000000E+00  0.00000000E+00
