15-TiZrVTaW                             
   1.00000000000000     
     8.8325400908939926   -0.0064921567935756   -0.0002591640186351
    -0.0065048800397380    8.8267387292533748   -0.0098752742723839
    -0.0002525437722802   -0.0098508423745064    8.7837775705412344
   Ti   W    V    N    C    Zr   Ta
     7     6     6    13    19     7     6
Direct
  0.0004687706057480  0.0030395396988002  0.0103135962957098
  0.2424906908308594  0.0082488383832238  0.2463455765268215
  0.2623074404495671  0.4866838808895336  0.2518964285864110
  0.5001088916070510  0.4987382402995502 -0.0012633925778230
  0.4990995223356211  0.2568378791380067  0.7545705161761885
  0.0091459846579650  0.4944606125105933  0.4971771668413101
  0.5008979362411216  0.7438155845080038  0.7520676788264008
  0.0025985007782592  0.2421016631413023  0.2533553553195065
  0.7614411358522648  0.7475044527136065  0.0030414210038747
  0.0031883477753956  0.2603723406705721  0.7467121466923827
  0.7568634988097489  0.2643083102082818  0.4922530884644098
 -0.0025173679774154  0.7372720067845121  0.7477583466303236
  0.2563869190647282  0.4976354531577039  0.7501856629695361
  0.2668224436436689  0.2637201307676671  0.9889926693738263
  0.5076849227667715  0.2609421423324250  0.2402355174213694
  0.7644460691486452  0.9930795657006219  0.2382061732147574
  0.7259986755406346  0.2512181986967037  0.0195276191821038
  0.2315387486206667  0.7298484659946382  0.0036072136599508
  0.2343560886236384  0.2490543063922905  0.5145747971453662
  0.2526841953266254  0.2490796471688086  0.2486016011077172
  0.2446125412937243  0.0085798829627897  0.0082297620816609
 -0.0022057204447954  0.2406560718167480  0.0006385218110788
  0.7457721405037425  0.2418837565021854  0.2473605377687484
  0.7568057645506254  0.0057086977891843  0.0055723293125936
  0.5027443923459385  0.0098083941271928  0.2484309840145952
 -0.0004935017304397  0.4976841933782908  0.2575859930594248
  0.5002717498838911  0.7462383763396613  0.9926941416468612
 -0.0008627865053463  0.0022908273111066  0.7516185204423456
  0.7462195946912858  0.2532159091735841  0.7506444308432504
  0.7569521755601830  0.0016315573842742  0.4940121161325063
  0.4993388834357734  0.2571759498038745  0.4995132859392712
  0.5021766989333072  0.0044214040398150  0.7506073745755040
  0.0010554777222814  0.0004287825436713  0.2456466983862677
  0.4966041810931234  0.2583452856194579  0.0010393734234224
  0.2421575950605970  0.7476878156264251  0.2391393848044677
  0.2552390427093672  0.4998417478151966  0.0042441459320142
  0.0057052677100416  0.7535817300575695  0.0022332612904985
  0.7544201756634741  0.7471148184931837  0.2544608389575297
  0.7418500705466540  0.4911482034297253 -0.0003591707285961
  0.4952971188478809  0.4928176745777794  0.2471219082343788
  0.2538490501495072  0.2526391649246756  0.7512428682627343
  0.2450018902353222  0.0093161588530659  0.4938281807496486
  0.0032649767049445  0.2539407239430831  0.5008747204002822
  0.2527241617912306  0.7460546951456951  0.7623078808758882
  0.2527463197503753  0.4876531558644016  0.4960692466553565
  0.9926375491449844  0.7541920663694999  0.4983204055335490
 -0.0016426114223472  0.4984906444109077  0.7439793008657498
  0.7448447134127594  0.7462168438495631  0.7503362644723012
  0.7569771977208803  0.4997864444554598  0.4964876782016757
  0.5044338755411327  0.7471935296263118  0.5062501558688819
  0.5025901047265164  0.5000290113020274  0.7500954373322533
  0.4976661311364438  0.0035032332955622  0.0044935196928228
 -0.0012451456895459  0.4933011905912372  0.0052403779051303
  0.4967965997079095  0.7472975407830259  0.2456259357114781
  0.2460756316656719  0.0003783142288116  0.7572169569060151
  0.4981216788461311  0.0086810030897825  0.4941218743918597
  0.7532419887735042 -0.0003125623088521  0.7520738140803842
  0.2495705927279263  0.7482009153436289  0.4983651847705466
  0.0006718512272567  0.7649325112727965  0.2520502708743717
  0.7307601523944919  0.4939798036568600  0.2421283667072682
  0.0085489817653106  0.0109325277587433  0.4840149309124563
  0.5020706168151209  0.5015006442193511  0.4987699456858841
  0.7440076846461745  0.5043352674501398  0.7565827470338991
  0.7466144036555091  0.7295355059257245  0.5009309873216652
 
  0.00000000E+00  0.00000000E+00  0.00000000E+00
  0.00000000E+00  0.00000000E+00  0.00000000E+00
  0.00000000E+00  0.00000000E+00  0.00000000E+00
  0.00000000E+00  0.00000000E+00  0.00000000E+00
  0.00000000E+00  0.00000000E+00  0.00000000E+00
  0.00000000E+00  0.00000000E+00  0.00000000E+00
  0.00000000E+00  0.00000000E+00  0.00000000E+00
  0.00000000E+00  0.00000000E+00  0.00000000E+00
  0.00000000E+00  0.00000000E+00  0.00000000E+00
  0.00000000E+00  0.00000000E+00  0.00000000E+00
  0.00000000E+00  0.00000000E+00  0.00000000E+00
  0.00000000E+00  0.00000000E+00  0.00000000E+00
  0.00000000E+00  0.00000000E+00  0.00000000E+00
  0.00000000E+00  0.00000000E+00  0.00000000E+00
  0.00000000E+00  0.00000000E+00  0.00000000E+00
  0.00000000E+00  0.00000000E+00  0.00000000E+00
  0.00000000E+00  0.00000000E+00  0.00000000E+00
  0.00000000E+00  0.00000000E+00  0.00000000E+00
  0.00000000E+00  0.00000000E+00  0.00000000E+00
  0.00000000E+00  0.00000000E+00  0.00000000E+00
  0.00000000E+00  0.00000000E+00  0.00000000E+00
  0.00000000E+00  0.00000000E+00  0.00000000E+00
  0.00000000E+00  0.00000000E+00  0.00000000E+00
  0.00000000E+00  0.00000000E+00  0.00000000E+00
  0.00000000E+00  0.00000000E+00  0.00000000E+00
  0.00000000E+00  0.00000000E+00  0.00000000E+00
  0.00000000E+00  0.00000000E+00  0.00000000E+00
  0.00000000E+00  0.00000000E+00  0.00000000E+00
  0.00000000E+00  0.00000000E+00  0.00000000E+00
  0.00000000E+00  0.00000000E+00  0.00000000E+00
  0.00000000E+00  0.00000000E+00  0.00000000E+00
  0.00000000E+00  0.00000000E+00  0.00000000E+00
  0.00000000E+00  0.00000000E+00  0.00000000E+00
  0.00000000E+00  0.00000000E+00  0.00000000E+00
  0.00000000E+00  0.00000000E+00  0.00000000E+00
  0.00000000E+00  0.00000000E+00  0.00000000E+00
  0.00000000E+00  0.00000000E+00  0.00000000E+00
  0.00000000E+00  0.00000000E+00  0.00000000E+00
  0.00000000E+00  0.00000000E+00  0.00000000E+00
  0.00000000E+00  0.00000000E+00  0.00000000E+00
  0.00000000E+00  0.00000000E+00  0.00000000E+00
  0.00000000E+00  0.00000000E+00  0.00000000E+00
  0.00000000E+00  0.00000000E+00  0.00000000E+00
  0.00000000E+00  0.00000000E+00  0.00000000E+00
  0.00000000E+00  0.00000000E+00  0.00000000E+00
  0.00000000E+00  0.00000000E+00  0.00000000E+00
  0.00000000E+00  0.00000000E+00  0.00000000E+00
  0.00000000E+00  0.00000000E+00  0.00000000E+00
  0.00000000E+00  0.00000000E+00  0.00000000E+00
  0.00000000E+00  0.00000000E+00  0.00000000E+00
  0.00000000E+00  0.00000000E+00  0.00000000E+00
  0.00000000E+00  0.00000000E+00  0.00000000E+00
  0.00000000E+00  0.00000000E+00  0.00000000E+00
  0.00000000E+00  0.00000000E+00  0.00000000E+00
  0.00000000E+00  0.00000000E+00  0.00000000E+00
  0.00000000E+00  0.00000000E+00  0.00000000E+00
  0.00000000E+00  0.00000000E+00  0.00000000E+00
  0.00000000E+00  0.00000000E+00  0.00000000E+00
  0.00000000E+00  0.00000000E+00  0.00000000E+00
  0.00000000E+00  0.00000000E+00  0.00000000E+00
  0.00000000E+00  0.00000000E+00  0.00000000E+00
  0.00000000E+00  0.00000000E+00  0.00000000E+00
  0.00000000E+00  0.00000000E+00  0.00000000E+00
  0.00000000E+00  0.00000000E+00  0.00000000E+00
