17-TiZrNbMoTa                           
   1.00000000000000     
     8.9134507222303938   -0.0051633382507674    0.0035405805149071
    -0.0051698578471902    8.9564311600286395   -0.0103859170606174
     0.0035153792017018   -0.0104062198281165    8.8709530951220614
   Ti   Ta   Nb   N    C    Zr   Mo
     7     6     6    13    19     7     6
Direct
  0.9989239707073689  0.9949835913537658  0.0091382603758480
  0.2405264343105264  0.9942427420266191  0.2500497838767084
  0.2605433135443971  0.4999367771022923  0.2520855160891566
  0.5001716317104419  0.4974168373881749  0.9979213811906994
  0.4974256552328716  0.2592365459120263  0.7533198160480287
  0.0070267090537327  0.4957306678696996  0.4937481941341835
  0.5037825765172530  0.7393454928872124  0.7484650472772963
  0.0034713603744173  0.2453265505115758  0.2592247795270126
  0.7574664922175037  0.7444825774409697  0.0022429572070113
  0.0037658178587509  0.2618896975349616  0.7427975623501877
  0.7544642837292662  0.2675013422614115  0.4993125668403127
  0.9949330088915649  0.7354668035881481  0.7422775852799969
  0.2577251739756860  0.4998786255298965  0.7494274017000707
  0.2594470681313710  0.2576750085228184  0.9954714969870463
  0.5047496352677122  0.2600623106222449  0.2461775809512721
  0.7607952730201546  0.9917971743618667  0.2500938558285567
  0.7383327548956045  0.2525953073091440  0.0080555591836243
  0.2366656721112007  0.7431086863942600  0.0015311784045093
  0.2410996059122649  0.2488668207003508  0.5049023186512650
  0.2488221042571700  0.2498734917574512  0.2494547682311626
  0.2447730801846696  0.0009697232170167  0.0084703861103397
  0.9985932715637159  0.2416581882239239  0.0008352723218845
  0.7544593492713692  0.2464892033998245  0.2549352755654263
  0.7562270464390245  0.9965366800120292  0.0010462652063840
  0.5003729465563740  0.0055094210319029  0.2488206420921275
  0.0056742786308486  0.4903173835994364  0.2573031937278427
  0.5028540011251472  0.7475644828283520  0.9924788695727007
  0.9984450988516410  0.0043819494430599  0.7581673472469134
  0.7495681309506554  0.2500524335316898  0.7474376591271145
  0.7531964090592667  0.0119964169429861  0.4963623814922440
  0.5059646412779655  0.2522743281216454  0.5031787396797651
  0.5023038847934450  0.0027195595374953  0.7510512199510203
  0.0054892874359568  0.0033735605673201  0.2460116046560731
  0.4992096706732327  0.2580099083185076  0.9954326317698662
  0.2441339636999313  0.7493391223758331  0.2457603386349198
  0.2542320628992004  0.5013528970636523  0.0030717904405391
  0.9974535528820123  0.7539889615238512  0.9991783970081776
  0.7541043888130758  0.7415154034225040  0.2515742928891327
  0.7417166734740970  0.4991955384672478 -0.0005881805649165
  0.4910496470628279  0.4991094366373723  0.2457336209195687
  0.2519563877311262  0.2537216091852696  0.7498119201321224
  0.2481449595494492  0.0029744880091129  0.4921277324327925
  0.9975145207202394  0.2565169105143796  0.5018398282809704
  0.2498964001915152  0.7459841654650773  0.7550064301147541
  0.2531381433346222  0.4945963215784991  0.4961129910052184
  0.9923722584956896  0.7543224168157908  0.5007357957061549
  0.0000725472866228  0.4985772812103323  0.7450283187160838
  0.7460267686319881  0.7456716876487994  0.7503148863564377
  0.7583203379013935  0.4995837097775681  0.4966174887168708
  0.5052242614327308  0.7466343673461283  0.5070044595345683
  0.4995082430966728  0.5001772916236793  0.7507975907705707
  0.4996875569239017  0.0035597743293892  0.0005631282801261
  0.9974930510865930  0.4975720594491566  0.0072691433150853
  0.4994324107675257  0.7462704936993694  0.2493838366682941
  0.2452880431484080  0.9995538564921227  0.7536938820596411
  0.4970194495154788 -0.0000397137761764  0.4992889683663256
  0.7539933441222250  0.9942130762413994  0.7466400313516660
  0.2474687822391647  0.7485783059020658  0.4996374163670964
 -0.0035168529094843  0.7670907632153122  0.2568385157533349
  0.7250339938154831  0.4964154206600268  0.2442634625359998
  0.0106686310596390  0.0123207140301304  0.4852261015758814
  0.5058795307766294  0.5075262551996048  0.4975979023885913
  0.7393864071770030  0.5085778061704764  0.7545592622078628
  0.7500315685417165  0.7238299618720092  0.4976822213825631
 
  0.00000000E+00  0.00000000E+00  0.00000000E+00
  0.00000000E+00  0.00000000E+00  0.00000000E+00
  0.00000000E+00  0.00000000E+00  0.00000000E+00
  0.00000000E+00  0.00000000E+00  0.00000000E+00
  0.00000000E+00  0.00000000E+00  0.00000000E+00
  0.00000000E+00  0.00000000E+00  0.00000000E+00
  0.00000000E+00  0.00000000E+00  0.00000000E+00
  0.00000000E+00  0.00000000E+00  0.00000000E+00
  0.00000000E+00  0.00000000E+00  0.00000000E+00
  0.00000000E+00  0.00000000E+00  0.00000000E+00
  0.00000000E+00  0.00000000E+00  0.00000000E+00
  0.00000000E+00  0.00000000E+00  0.00000000E+00
  0.00000000E+00  0.00000000E+00  0.00000000E+00
  0.00000000E+00  0.00000000E+00  0.00000000E+00
  0.00000000E+00  0.00000000E+00  0.00000000E+00
  0.00000000E+00  0.00000000E+00  0.00000000E+00
  0.00000000E+00  0.00000000E+00  0.00000000E+00
  0.00000000E+00  0.00000000E+00  0.00000000E+00
  0.00000000E+00  0.00000000E+00  0.00000000E+00
  0.00000000E+00  0.00000000E+00  0.00000000E+00
  0.00000000E+00  0.00000000E+00  0.00000000E+00
  0.00000000E+00  0.00000000E+00  0.00000000E+00
  0.00000000E+00  0.00000000E+00  0.00000000E+00
  0.00000000E+00  0.00000000E+00  0.00000000E+00
  0.00000000E+00  0.00000000E+00  0.00000000E+00
  0.00000000E+00  0.00000000E+00  0.00000000E+00
  0.00000000E+00  0.00000000E+00  0.00000000E+00
  0.00000000E+00  0.00000000E+00  0.00000000E+00
  0.00000000E+00  0.00000000E+00  0.00000000E+00
  0.00000000E+00  0.00000000E+00  0.00000000E+00
  0.00000000E+00  0.00000000E+00  0.00000000E+00
  0.00000000E+00  0.00000000E+00  0.00000000E+00
  0.00000000E+00  0.00000000E+00  0.00000000E+00
  0.00000000E+00  0.00000000E+00  0.00000000E+00
  0.00000000E+00  0.00000000E+00  0.00000000E+00
  0.00000000E+00  0.00000000E+00  0.00000000E+00
  0.00000000E+00  0.00000000E+00  0.00000000E+00
  0.00000000E+00  0.00000000E+00  0.00000000E+00
  0.00000000E+00  0.00000000E+00  0.00000000E+00
  0.00000000E+00  0.00000000E+00  0.00000000E+00
  0.00000000E+00  0.00000000E+00  0.00000000E+00
  0.00000000E+00  0.00000000E+00  0.00000000E+00
  0.00000000E+00  0.00000000E+00  0.00000000E+00
  0.00000000E+00  0.00000000E+00  0.00000000E+00
  0.00000000E+00  0.00000000E+00  0.00000000E+00
  0.00000000E+00  0.00000000E+00  0.00000000E+00
  0.00000000E+00  0.00000000E+00  0.00000000E+00
  0.00000000E+00  0.00000000E+00  0.00000000E+00
  0.00000000E+00  0.00000000E+00  0.00000000E+00
  0.00000000E+00  0.00000000E+00  0.00000000E+00
  0.00000000E+00  0.00000000E+00  0.00000000E+00
  0.00000000E+00  0.00000000E+00  0.00000000E+00
  0.00000000E+00  0.00000000E+00  0.00000000E+00
  0.00000000E+00  0.00000000E+00  0.00000000E+00
  0.00000000E+00  0.00000000E+00  0.00000000E+00
  0.00000000E+00  0.00000000E+00  0.00000000E+00
  0.00000000E+00  0.00000000E+00  0.00000000E+00
  0.00000000E+00  0.00000000E+00  0.00000000E+00
  0.00000000E+00  0.00000000E+00  0.00000000E+00
  0.00000000E+00  0.00000000E+00  0.00000000E+00
  0.00000000E+00  0.00000000E+00  0.00000000E+00
  0.00000000E+00  0.00000000E+00  0.00000000E+00
  0.00000000E+00  0.00000000E+00  0.00000000E+00
  0.00000000E+00  0.00000000E+00  0.00000000E+00
