TiZrHfVNb                               
   1.00000000000000     
     8.8944346426564902   -0.0000298943748999   -0.0044438086542650
    -0.0001461751744248    9.0101797602057569   -0.0038138249875528
    -0.0044238515668040   -0.0038247005019250    8.9012796039097921
   Ti   Nb   Hf   N    C    Zr   V 
     7     6     6    13    19     7     6
Direct
 -0.0013596201795914 -0.0058607896747388  0.0140257933909123
  0.2419731533121762 -0.0057983671512719  0.2533157105119675
  0.2589737592619922  0.5052861802011179  0.2519124226227966
  0.5008797136711268  0.5021910944084411  0.0001029454659036
  0.4977503186306994  0.2640159260439245  0.7473017928896504
 -0.0000888518422035  0.5026054045376057  0.4887048907216518
  0.5037906747380269  0.7374006556809051  0.7458216123493145
 -0.0027850591882528  0.2386994214937321  0.2623948889931880
  0.7542237777801946  0.7407603056246187  0.0034354414986780
 -0.0002530898192088  0.2673168600833563  0.7373344350252593
  0.7529109179767648  0.2752368055719354  0.5052412289903205
 -0.0053913915556908  0.7344800348670733  0.7409680256304293
  0.2565502332286058  0.5008709391545847  0.7482396013172475
  0.2470208361056548  0.2527144275156608  0.0018742899974758
  0.5037135551416874  0.2558672286600808  0.2521938049326069
  0.7563062936376199 -0.0074859931111396  0.2575176414804891
  0.7516399676955587  0.2564022857315856 -0.0059698928413107
  0.2471479692719586  0.7485862529952578  0.0009144048069329
  0.2499825219553949  0.2539314330011516  0.4977243227979172
  0.2506437567853935  0.2493762540435538  0.2499047578423214
  0.2439426024143579  0.0004761902525826  0.0059223749117281
 -0.0002084591236934  0.2426483482045592  0.0024235346166320
  0.7515808924171836  0.2504597586114072  0.2522034697640534
  0.7564102055656026  0.0023405450964190  0.0016839565313877
  0.5018283679555255  0.0045150215431855  0.2491288747103672
  0.0003370493678061  0.4939412957891107  0.2579711027692790
  0.4999903010094267  0.7460397025418145 -0.0053151362028948
 -0.0026227067113113  0.0014966275118305  0.7525745231596440
  0.7456605889543220  0.2536028161787044  0.7482249991701987
  0.7560926173631988  0.0089031088434027  0.4984958720749785
  0.5029818485696979  0.2538350913440139  0.5028999135380279
  0.5039231892885178 -0.0004799095747450  0.7502781781676394
  0.0033584687250127 -0.0046308696703607  0.2516605520956782
  0.5006741423530323  0.2531592997611434 -0.0033227693799121
  0.2412158991273601  0.7491330035927078  0.2485677520646375
  0.2544067868888403  0.4999951386348428  0.0047151795708137
 -0.0039042858845232  0.7557302963305422  0.0044102075416972
  0.7583850679490306  0.7398174441703331  0.2553164232467005
  0.7440304035501855  0.5018076369579253  0.0024239775667571
  0.5032334888697657  0.4996697407875738  0.2523369152915984
  0.2528634594482982  0.2536399696703718  0.7497895067063490
  0.2418398942682690  0.0019345372895407  0.4927758665773495
 -0.0019241928766464  0.2503808774967604  0.4999265110242336
  0.2510321121983575  0.7462176916291570  0.7515024771696186
  0.2526369245988431  0.4986484407707382  0.4950226983135942
 -0.0108241986083390  0.7520374595892111  0.4936406966764321
 -0.0060203180369764  0.5006720948756236  0.7428942877088286
  0.7463855100823383  0.7387692990829804  0.7463674608593118
  0.7499213136377492  0.5072432512824693  0.4975757041922790
  0.5087710924878490  0.7401765674945426  0.5067335997393916
  0.5060661265768641  0.5005017298598383  0.7474589414660041
  0.5007925256045900  0.0003116237952578 -0.0029364988958931
 -0.0009972058048695  0.5025353122030967  0.0105466669433691
  0.5017526379872965  0.7459041286320026  0.2527315932113992
  0.2404479374516582 -0.0006513270587458  0.7481214503534778
  0.4985214765562743 -0.0070317128000163  0.5021926185380093
  0.7587261236926741 -0.0104830209534601  0.7415794452705446
  0.2460082288995917  0.7458795401115756  0.4988368446780158
 -0.0014913255186304  0.7678077712577437  0.2592182735744510
  0.7359136099429479  0.5110614700464914  0.2439450097442879
  0.0069662788810461 -0.0029302538709579  0.4820597224287501
  0.5059425796915907  0.5070763456615888  0.5004132615036652
  0.7403281601323141  0.5071533638499139  0.7580704437746695
  0.7513960154497216  0.7240888654999063  0.4959760708091542
 
  0.00000000E+00  0.00000000E+00  0.00000000E+00
  0.00000000E+00  0.00000000E+00  0.00000000E+00
  0.00000000E+00  0.00000000E+00  0.00000000E+00
  0.00000000E+00  0.00000000E+00  0.00000000E+00
  0.00000000E+00  0.00000000E+00  0.00000000E+00
  0.00000000E+00  0.00000000E+00  0.00000000E+00
  0.00000000E+00  0.00000000E+00  0.00000000E+00
  0.00000000E+00  0.00000000E+00  0.00000000E+00
  0.00000000E+00  0.00000000E+00  0.00000000E+00
  0.00000000E+00  0.00000000E+00  0.00000000E+00
  0.00000000E+00  0.00000000E+00  0.00000000E+00
  0.00000000E+00  0.00000000E+00  0.00000000E+00
  0.00000000E+00  0.00000000E+00  0.00000000E+00
  0.00000000E+00  0.00000000E+00  0.00000000E+00
  0.00000000E+00  0.00000000E+00  0.00000000E+00
  0.00000000E+00  0.00000000E+00  0.00000000E+00
  0.00000000E+00  0.00000000E+00  0.00000000E+00
  0.00000000E+00  0.00000000E+00  0.00000000E+00
  0.00000000E+00  0.00000000E+00  0.00000000E+00
  0.00000000E+00  0.00000000E+00  0.00000000E+00
  0.00000000E+00  0.00000000E+00  0.00000000E+00
  0.00000000E+00  0.00000000E+00  0.00000000E+00
  0.00000000E+00  0.00000000E+00  0.00000000E+00
  0.00000000E+00  0.00000000E+00  0.00000000E+00
  0.00000000E+00  0.00000000E+00  0.00000000E+00
  0.00000000E+00  0.00000000E+00  0.00000000E+00
  0.00000000E+00  0.00000000E+00  0.00000000E+00
  0.00000000E+00  0.00000000E+00  0.00000000E+00
  0.00000000E+00  0.00000000E+00  0.00000000E+00
  0.00000000E+00  0.00000000E+00  0.00000000E+00
  0.00000000E+00  0.00000000E+00  0.00000000E+00
  0.00000000E+00  0.00000000E+00  0.00000000E+00
  0.00000000E+00  0.00000000E+00  0.00000000E+00
  0.00000000E+00  0.00000000E+00  0.00000000E+00
  0.00000000E+00  0.00000000E+00  0.00000000E+00
  0.00000000E+00  0.00000000E+00  0.00000000E+00
  0.00000000E+00  0.00000000E+00  0.00000000E+00
  0.00000000E+00  0.00000000E+00  0.00000000E+00
  0.00000000E+00  0.00000000E+00  0.00000000E+00
  0.00000000E+00  0.00000000E+00  0.00000000E+00
  0.00000000E+00  0.00000000E+00  0.00000000E+00
  0.00000000E+00  0.00000000E+00  0.00000000E+00
  0.00000000E+00  0.00000000E+00  0.00000000E+00
  0.00000000E+00  0.00000000E+00  0.00000000E+00
  0.00000000E+00  0.00000000E+00  0.00000000E+00
  0.00000000E+00  0.00000000E+00  0.00000000E+00
  0.00000000E+00  0.00000000E+00  0.00000000E+00
  0.00000000E+00  0.00000000E+00  0.00000000E+00
  0.00000000E+00  0.00000000E+00  0.00000000E+00
  0.00000000E+00  0.00000000E+00  0.00000000E+00
  0.00000000E+00  0.00000000E+00  0.00000000E+00
  0.00000000E+00  0.00000000E+00  0.00000000E+00
  0.00000000E+00  0.00000000E+00  0.00000000E+00
  0.00000000E+00  0.00000000E+00  0.00000000E+00
  0.00000000E+00  0.00000000E+00  0.00000000E+00
  0.00000000E+00  0.00000000E+00  0.00000000E+00
  0.00000000E+00  0.00000000E+00  0.00000000E+00
  0.00000000E+00  0.00000000E+00  0.00000000E+00
  0.00000000E+00  0.00000000E+00  0.00000000E+00
  0.00000000E+00  0.00000000E+00  0.00000000E+00
  0.00000000E+00  0.00000000E+00  0.00000000E+00
  0.00000000E+00  0.00000000E+00  0.00000000E+00
  0.00000000E+00  0.00000000E+00  0.00000000E+00
  0.00000000E+00  0.00000000E+00  0.00000000E+00
