67-TiHfNbCrMo                           
   1.00000000000000     
     8.7726548566430864    0.0257066146863523   -0.0082871121390347
     0.0321099407810004    8.7734763483513394   -0.0013281433330205
     0.0232313533136590   -0.0167439572073453    8.7774534355596963
  Hf              Nb              Ti              N               C               Cr              Mo            
     7     6     7    13    19     6     6
Direct
  0.0004309939983334  0.9982869769365209  0.9967701073536450
  0.2684457258728056  0.0010517137172309  0.2473215190320699
  0.2427948987447492  0.4948421576276330  0.2455975043283276
  0.5007819936895337  0.5004298394111670  0.0002872051703865
  0.5071136405063231  0.2441901365469099  0.7433795041438598
  0.9987516775895624  0.5024481397539521  0.4994798665169191
  0.4960371165133028  0.7591739427711399  0.7489935427086238
  0.9905504130109252  0.2365003995608689  0.2537833452951511
  0.7569661931908535  0.7467510311271145  0.0093708410858851
  0.0008731968516345  0.2523499381126897  0.7488585087777420
  0.7519092534912473  0.2503754031199929  0.4977030881575760
  0.9995939100816094  0.7491085068132386  0.7509238379398026
  0.2506186451966102  0.4952950473963449  0.7487983045603767
  0.2564828646981874  0.2425889472379367  0.9904648072687872
  0.5080889803026574  0.2547059982393541  0.2517440540648995
  0.7357060669803529  0.9915290816104662  0.2633499724815473
  0.7457241814892688  0.2472824855639947  0.0000257981034070
  0.2480090013853605  0.7490744357406782  0.9986842593116602
  0.2521161933247230  0.2467671676749243  0.5049953115198217
  0.2507365108107844  0.7518860962241577  0.5006833386078297
  0.2540125678883677  0.2476188497947048  0.2475739800586208
  0.2544138830123688  0.0016576060611342  0.9972389148930855
  0.0022457581546560  0.2513898186326554  0.0003855029118863
  0.7439838125442173  0.2431263013279550  0.2456981770275614
  0.7466829698714652  0.0022955082218864  0.0058810429685502
  0.5090960011447673  0.0060752422141075  0.2537013772827502
  0.9946316729808571  0.4971148632987533  0.2463714566303944
  0.4975996022195000  0.7600224785915395  0.0015763720994855
  0.9876691201600554  0.0035727517288764  0.7456584909627304
  0.7521025458893541  0.2435757432295969  0.7542213849198635
  0.7528133929372567  0.0046414971280993  0.4916007680764695
  0.4972679219019426  0.2457076106246871  0.4929800415427570
  0.5214342712353462  0.0012211919855768  0.7463420336014589
  0.9984627699821141  0.9993331006996402  0.2513552620067267
  0.5022714923522084  0.2406583945208124  0.0016455371933872
  0.2577623770010899  0.7491289522876290  0.2491080128138414
  0.2421314128553076  0.4997746621372660  0.9956044329846803
  0.0054856584611277  0.7417912493729736  0.0045037614914516
  0.7411611121579302  0.7490033143110473  0.2528821031264974
  0.7620638380531142  0.4947828666446897  0.0077210126496935
  0.4944340029839084  0.4986221090756232  0.2497660159055805
  0.2515829209702551  0.2431658732269366  0.7481408448280675
  0.2581091656553752  0.0000089484461238  0.5110675100876356
  0.0052966214614240  0.2492930396736540  0.5006263626553111
  0.2453628487944749  0.7598396880185772  0.7499427560239632
  0.2533225924628689  0.5013153887064523  0.4986725022953669
  0.0001357213791920  0.7564061589730104  0.4994604518582212
  0.0000809514714227  0.5017104543061703  0.7534971710146545
  0.7488693960007075  0.7585970614761605  0.7480074580678570
  0.7473615698946866  0.4983226267743265  0.5068855474963080
  0.4974131995987004  0.7638464390271495  0.4879082055972395
  0.5044361557676887  0.5022124249085925  0.7448579279877737
  0.5217557724302546  0.0092994844587389  0.9750754175518951
  0.9962060800542332  0.5110263278509548  0.9796998728393566
  0.4895791473535420  0.7273121567574797  0.2631789425902331
  0.2215846842335096  0.0121830962507364  0.7354407885496069
  0.4780444654426596  0.9924102838101604  0.5165938143819835
  0.7378519489486753  0.9741746986706717  0.7839138011953071
  0.0089386410315525  0.7683768878266866  0.2553278345249324
  0.7329088447230063  0.5053645541906994  0.2557545764240428
  0.0180915802336706  0.0023480243275580  0.4983542204593522
  0.5044470493693201  0.5142543841669721  0.4892696276403695
  0.7546556098507855  0.5165374585916008  0.7633906987269407
  0.7445077673561976  0.7362427334850442  0.4919034056278379
 
  0.00000000E+00  0.00000000E+00  0.00000000E+00
  0.00000000E+00  0.00000000E+00  0.00000000E+00
  0.00000000E+00  0.00000000E+00  0.00000000E+00
  0.00000000E+00  0.00000000E+00  0.00000000E+00
  0.00000000E+00  0.00000000E+00  0.00000000E+00
  0.00000000E+00  0.00000000E+00  0.00000000E+00
  0.00000000E+00  0.00000000E+00  0.00000000E+00
  0.00000000E+00  0.00000000E+00  0.00000000E+00
  0.00000000E+00  0.00000000E+00  0.00000000E+00
  0.00000000E+00  0.00000000E+00  0.00000000E+00
  0.00000000E+00  0.00000000E+00  0.00000000E+00
  0.00000000E+00  0.00000000E+00  0.00000000E+00
  0.00000000E+00  0.00000000E+00  0.00000000E+00
  0.00000000E+00  0.00000000E+00  0.00000000E+00
  0.00000000E+00  0.00000000E+00  0.00000000E+00
  0.00000000E+00  0.00000000E+00  0.00000000E+00
  0.00000000E+00  0.00000000E+00  0.00000000E+00
  0.00000000E+00  0.00000000E+00  0.00000000E+00
  0.00000000E+00  0.00000000E+00  0.00000000E+00
  0.00000000E+00  0.00000000E+00  0.00000000E+00
  0.00000000E+00  0.00000000E+00  0.00000000E+00
  0.00000000E+00  0.00000000E+00  0.00000000E+00
  0.00000000E+00  0.00000000E+00  0.00000000E+00
  0.00000000E+00  0.00000000E+00  0.00000000E+00
  0.00000000E+00  0.00000000E+00  0.00000000E+00
  0.00000000E+00  0.00000000E+00  0.00000000E+00
  0.00000000E+00  0.00000000E+00  0.00000000E+00
  0.00000000E+00  0.00000000E+00  0.00000000E+00
  0.00000000E+00  0.00000000E+00  0.00000000E+00
  0.00000000E+00  0.00000000E+00  0.00000000E+00
  0.00000000E+00  0.00000000E+00  0.00000000E+00
  0.00000000E+00  0.00000000E+00  0.00000000E+00
  0.00000000E+00  0.00000000E+00  0.00000000E+00
  0.00000000E+00  0.00000000E+00  0.00000000E+00
  0.00000000E+00  0.00000000E+00  0.00000000E+00
  0.00000000E+00  0.00000000E+00  0.00000000E+00
  0.00000000E+00  0.00000000E+00  0.00000000E+00
  0.00000000E+00  0.00000000E+00  0.00000000E+00
  0.00000000E+00  0.00000000E+00  0.00000000E+00
  0.00000000E+00  0.00000000E+00  0.00000000E+00
  0.00000000E+00  0.00000000E+00  0.00000000E+00
  0.00000000E+00  0.00000000E+00  0.00000000E+00
  0.00000000E+00  0.00000000E+00  0.00000000E+00
  0.00000000E+00  0.00000000E+00  0.00000000E+00
  0.00000000E+00  0.00000000E+00  0.00000000E+00
  0.00000000E+00  0.00000000E+00  0.00000000E+00
  0.00000000E+00  0.00000000E+00  0.00000000E+00
  0.00000000E+00  0.00000000E+00  0.00000000E+00
  0.00000000E+00  0.00000000E+00  0.00000000E+00
  0.00000000E+00  0.00000000E+00  0.00000000E+00
  0.00000000E+00  0.00000000E+00  0.00000000E+00
  0.00000000E+00  0.00000000E+00  0.00000000E+00
  0.00000000E+00  0.00000000E+00  0.00000000E+00
  0.00000000E+00  0.00000000E+00  0.00000000E+00
  0.00000000E+00  0.00000000E+00  0.00000000E+00
  0.00000000E+00  0.00000000E+00  0.00000000E+00
  0.00000000E+00  0.00000000E+00  0.00000000E+00
  0.00000000E+00  0.00000000E+00  0.00000000E+00
  0.00000000E+00  0.00000000E+00  0.00000000E+00
  0.00000000E+00  0.00000000E+00  0.00000000E+00
  0.00000000E+00  0.00000000E+00  0.00000000E+00
  0.00000000E+00  0.00000000E+00  0.00000000E+00
  0.00000000E+00  0.00000000E+00  0.00000000E+00
  0.00000000E+00  0.00000000E+00  0.00000000E+00
