47-ZrVNbTaW                             
   1.00000000000000     
     8.8674842613650586    0.0041296821343802    0.0275274601171326
     0.0101483582706615    8.8567202665237268   -0.0158026845561780
     0.0594956749169081   -0.0309332234673490    8.8932667592761394
   Zr   Nb   V    N    C    W    Ta
     7     6     7    13    19     6     6
Direct
  0.0062227392648079  0.0061720128669999  0.9971137094069698
  0.2633453476620869  0.0064708754876168  0.2430336579857475
  0.2477668593897812  0.4929018602862456  0.2520117929584763
  0.4992335272254607  0.4995274834227683  0.0001489072634082
  0.4998398795021963  0.2428962531617117  0.7479176836499419
  0.0018620912948877  0.5009290832925968  0.5037218592731302
  0.4926754656011004  0.7578422161361015  0.7546893326986559
  0.9950588364172416  0.2359023524609057  0.2556793061453202
  0.7604230303550465  0.7510641640111861  0.0042764027989675
  0.0011165776199452  0.2575515534919147  0.7489130943788535
  0.7564667456808342  0.2446587776369444  0.4878112909465723
  0.0013225955115389  0.7467754866299905  0.7534484642775757
  0.2482499324982747  0.5006428987902924  0.7494913900242403
  0.2544518666107005  0.2682609382171432  0.9843912117730761
  0.5135708527966185  0.2673375794449424  0.2444016673682084
  0.7434327748403234  0.9962096678575535  0.2763739367547643
  0.7256117279171955  0.2445168317299869  0.0143182740027821
  0.2291687845643005  0.7280557104131730  0.0023719351813314
  0.2347377504723405  0.2431400369075348  0.5187934428965398
  0.2590768625241847  0.7597619194310978  0.4946221214388487
  0.2470451691355423  0.2488954452454482  0.2448218251747173
  0.2630640358875510  0.0009717323401229  0.9887531822341478
 -0.0015287962386140  0.2578394092737907  0.0036273910300499
  0.7451739776947670  0.2449952850322803  0.2413567107488167
  0.7534207344124971  0.0078480892730077  0.0160775472287693
  0.5176328322654811  0.9979656669409789  0.2340497278911341
  0.9937373257649771  0.4995420531339940  0.2442215944941661
  0.4963818673725082  0.7603015876470089  0.0090368285275562
  0.9855254335367487  0.0033628758152549  0.7448900198654176
  0.7540793263142075  0.2442741005377319  0.7514910956743270
  0.7556955143456030  0.0003639437525508  0.5182040933524593
  0.4999336686903538  0.2450499591778574  0.4860394497014695
  0.4931950401472214  0.0005533143555934  0.7290519800277572
  0.9966662729378493 -0.0005732816882653  0.2556128028032058
  0.4907022393841925  0.2448901552945814  0.0071995925270684
  0.2540692107474368  0.7500447685345790  0.2454168543845926
  0.2436661639097981  0.4983948208755640  0.9975891262236314
  0.0034201661192086  0.7460696260199622  0.0038148257620743
  0.7501243314357775  0.7534191178423236  0.2524427333214992
  0.7560305285333937  0.4919757499873049  0.0010785038005132
  0.5032485975567327  0.4960582525213721  0.2541333761034347
  0.2457589577453655  0.2469072282966788  0.7517875405025329
  0.2651893883214178  0.0032948057445550  0.5007625232791525
  0.0043737337495755  0.2466669406900946  0.5015162260596679
  0.2427617609796640  0.7547856707179481  0.7528750844201422
  0.2559144278268329  0.4966285267953055  0.5035014490173341
  0.0039227951879328  0.7564987159714307  0.5004664744699600
  0.9983653056639911  0.5021808500264947  0.7526176796425047
  0.7500424909476565  0.7514009844456403  0.7515454315701965
  0.7455996696875524  0.4983770831125733  0.4983069683925539
  0.4955090959072830  0.7487480715876035  0.4996045810306038
  0.5007725274629691  0.4998404402356009  0.7443598112869186
  0.5199615574637324  0.0089972530571881  0.9843377571858714
  0.0011368204738072  0.5017933553098807  0.9887294542035442
  0.4954558529362530  0.7392079946764432  0.2581980597404401
  0.2374601085789606 -0.0015911974629142  0.7421040476749240
  0.5083108049775790  0.9876369807855324  0.4750565392806746
  0.7329055858528138  0.9874672883923061  0.7759317193446859
  0.0050977630575469  0.7632339800486395  0.2526600386817682
  0.7497128682069124  0.4996008234554628  0.2481124337262035
  0.0156011245664197  0.0019311602019998  0.5044873800098020
  0.4972210805036688  0.5033091722201201  0.5002469618290392
  0.7492586458470355  0.5057942572367018  0.7538788559547221
  0.7447501223528776  0.7544289918649923  0.4964743765965661
 
  0.00000000E+00  0.00000000E+00  0.00000000E+00
  0.00000000E+00  0.00000000E+00  0.00000000E+00
  0.00000000E+00  0.00000000E+00  0.00000000E+00
  0.00000000E+00  0.00000000E+00  0.00000000E+00
  0.00000000E+00  0.00000000E+00  0.00000000E+00
  0.00000000E+00  0.00000000E+00  0.00000000E+00
  0.00000000E+00  0.00000000E+00  0.00000000E+00
  0.00000000E+00  0.00000000E+00  0.00000000E+00
  0.00000000E+00  0.00000000E+00  0.00000000E+00
  0.00000000E+00  0.00000000E+00  0.00000000E+00
  0.00000000E+00  0.00000000E+00  0.00000000E+00
  0.00000000E+00  0.00000000E+00  0.00000000E+00
  0.00000000E+00  0.00000000E+00  0.00000000E+00
  0.00000000E+00  0.00000000E+00  0.00000000E+00
  0.00000000E+00  0.00000000E+00  0.00000000E+00
  0.00000000E+00  0.00000000E+00  0.00000000E+00
  0.00000000E+00  0.00000000E+00  0.00000000E+00
  0.00000000E+00  0.00000000E+00  0.00000000E+00
  0.00000000E+00  0.00000000E+00  0.00000000E+00
  0.00000000E+00  0.00000000E+00  0.00000000E+00
  0.00000000E+00  0.00000000E+00  0.00000000E+00
  0.00000000E+00  0.00000000E+00  0.00000000E+00
  0.00000000E+00  0.00000000E+00  0.00000000E+00
  0.00000000E+00  0.00000000E+00  0.00000000E+00
  0.00000000E+00  0.00000000E+00  0.00000000E+00
  0.00000000E+00  0.00000000E+00  0.00000000E+00
  0.00000000E+00  0.00000000E+00  0.00000000E+00
  0.00000000E+00  0.00000000E+00  0.00000000E+00
  0.00000000E+00  0.00000000E+00  0.00000000E+00
  0.00000000E+00  0.00000000E+00  0.00000000E+00
  0.00000000E+00  0.00000000E+00  0.00000000E+00
  0.00000000E+00  0.00000000E+00  0.00000000E+00
  0.00000000E+00  0.00000000E+00  0.00000000E+00
  0.00000000E+00  0.00000000E+00  0.00000000E+00
  0.00000000E+00  0.00000000E+00  0.00000000E+00
  0.00000000E+00  0.00000000E+00  0.00000000E+00
  0.00000000E+00  0.00000000E+00  0.00000000E+00
  0.00000000E+00  0.00000000E+00  0.00000000E+00
  0.00000000E+00  0.00000000E+00  0.00000000E+00
  0.00000000E+00  0.00000000E+00  0.00000000E+00
  0.00000000E+00  0.00000000E+00  0.00000000E+00
  0.00000000E+00  0.00000000E+00  0.00000000E+00
  0.00000000E+00  0.00000000E+00  0.00000000E+00
  0.00000000E+00  0.00000000E+00  0.00000000E+00
  0.00000000E+00  0.00000000E+00  0.00000000E+00
  0.00000000E+00  0.00000000E+00  0.00000000E+00
  0.00000000E+00  0.00000000E+00  0.00000000E+00
  0.00000000E+00  0.00000000E+00  0.00000000E+00
  0.00000000E+00  0.00000000E+00  0.00000000E+00
  0.00000000E+00  0.00000000E+00  0.00000000E+00
  0.00000000E+00  0.00000000E+00  0.00000000E+00
  0.00000000E+00  0.00000000E+00  0.00000000E+00
  0.00000000E+00  0.00000000E+00  0.00000000E+00
  0.00000000E+00  0.00000000E+00  0.00000000E+00
  0.00000000E+00  0.00000000E+00  0.00000000E+00
  0.00000000E+00  0.00000000E+00  0.00000000E+00
  0.00000000E+00  0.00000000E+00  0.00000000E+00
  0.00000000E+00  0.00000000E+00  0.00000000E+00
  0.00000000E+00  0.00000000E+00  0.00000000E+00
  0.00000000E+00  0.00000000E+00  0.00000000E+00
  0.00000000E+00  0.00000000E+00  0.00000000E+00
  0.00000000E+00  0.00000000E+00  0.00000000E+00
  0.00000000E+00  0.00000000E+00  0.00000000E+00
  0.00000000E+00  0.00000000E+00  0.00000000E+00
