44-ZrHfNbMoW                            
   1.00000000000000     
     8.9914255312260867    0.0152724802843608    0.0120628847321307
     0.0212145533209473    9.0288997842946408   -0.0133454489308603
     0.0443508987968603   -0.0288210404171956    8.9953293124808322
  Zr              W               Hf              N               C               Mo              Nb            
     7     6     7    13    19     6     6
Direct
  0.0019482238060389  0.0000446673382289  0.9914659156966247
  0.2574667216163464  0.9984506191272176  0.2556019993192352
  0.2467203598518282  0.5017712066164496  0.2474034745066409
  0.5010558833263454  0.4988853742563715  0.9996818342068179
  0.5029890021989339  0.2412176171253894  0.7453683605719833
  0.9992990559850421  0.4995022789225568  0.5030341614200576
  0.4998139504839201  0.7598878541164332  0.7522294083051733
  0.9892911785826789  0.2305555729314752  0.2728566255721855
  0.7697395664404867  0.7418779128263040  0.9957359628879534
  0.0173199934353741  0.2397351172345967  0.7305299547000311
  0.7567802447492206  0.2671311956919920  0.4939139530049749
  0.9990208685410839  0.7252008769103953  0.7606001410304863
  0.2578302796917898  0.4997308011701365  0.7525252292416073
  0.2467850641673427  0.2485415091531906  0.9954564150493591
  0.5068191807507411  0.2510983058563253  0.2482584036853922
  0.7443904504008941  0.9937348060146184  0.2612029989880967
  0.7552981209946474  0.2526088967067469  0.9910168020528071
  0.2511636529584770  0.7557450104556888  0.9999644945785753
  0.2565831398476426  0.2494510480885980  0.5025404343218728
  0.2466260407480308  0.7515929484451594  0.5050227483622820
  0.2477962465548483  0.2486363480570346  0.2496372769285340
  0.2598215207888185  0.0031447408398914  0.9979772914474359
  0.0008914438196605  0.2526306144857239  0.0092708718951003
  0.7529496577750332  0.2464289880088092  0.2484520875852914
  0.7520484920202684  0.9965870090058174  0.0077109324065373
  0.5045819729877797  0.0007732689039823  0.2349025727094107
  0.9948548753592817  0.4854965106974167  0.2466444349065503
  0.5062875058389947  0.7578391403901371  0.0048003133938257
  0.9734334598542888  0.0024856525317490  0.7457971440426912
  0.7598873995546606  0.2451335210268356  0.7444458592143012
  0.7444608532357188  0.0069520547041071  0.5060260278403161
  0.5071649657068371  0.2477214500246908  0.4931344276926524
  0.4853211052683826  0.0013203802094317  0.7338759244962593
  0.9970116127513915  0.9991010136669757  0.2547588571189381
  0.5030368748469376  0.2502128818813676  0.9995096041271468
  0.2506788363539120  0.7497299734798515  0.2509571231880477
  0.2453017192967143  0.5031742219805102  0.9944820349620213
  0.0038231773612555  0.7512306458567116  0.0027789091547925
  0.7497883844779423  0.7470945046367243  0.2447947897855723
  0.7552338571667953  0.5043736401859141  0.9994803005635845
  0.5041782969479891  0.5013700529997017  0.2545433118921024
  0.2502268246721001  0.2571099003754266  0.7486826262775625
  0.2538406051279619  0.9996950565056546  0.5100481302185175
  0.9989366226263298  0.2454593470459797  0.5048588541929473
  0.2400032487456371  0.7524415741927645  0.7528158941147046
  0.2541396834469353  0.5000813456074557  0.5036669497460389
  0.9957197351285699  0.7530511725902461  0.5085819966850063
  0.0007579215400423  0.4872008385061894  0.7567000690258648
  0.7551082969207095  0.7545494491752113  0.7522497103064836
  0.7470564551013310  0.4998857731913735  0.4984730925416675
  0.4986000329228927  0.7485680645888524  0.5015674965052793
  0.4969665047560584  0.5015110257518071  0.7449761822305540
  0.5175417811815003  0.0126928128926804  0.9781716744853579
  0.9966530423479477  0.5163731077231276  0.9895149762142922
  0.5030871781250967  0.7478749203950424  0.2623702806191845
  0.2209662964095627  0.0139361410401927  0.7481349920371336
  0.4908023204499741  0.9779450101227565  0.4819614088368347
  0.7250265457592749  0.9878704768413349  0.7729111403048178
  0.0005096751692196  0.7662056131974174  0.2515012658311116
  0.7486213165294678  0.5084537679350586  0.2486693943439604
  0.0061487270415411  0.9995856871744672  0.5079499804718209
  0.4996424179803184  0.5129895771175705  0.4989442923057516
  0.7433571176838044  0.5099892854068266  0.7501577361609925
  0.7507947897893655  0.7383295710612902  0.4987025796908593
 
  0.00000000E+00  0.00000000E+00  0.00000000E+00
  0.00000000E+00  0.00000000E+00  0.00000000E+00
  0.00000000E+00  0.00000000E+00  0.00000000E+00
  0.00000000E+00  0.00000000E+00  0.00000000E+00
  0.00000000E+00  0.00000000E+00  0.00000000E+00
  0.00000000E+00  0.00000000E+00  0.00000000E+00
  0.00000000E+00  0.00000000E+00  0.00000000E+00
  0.00000000E+00  0.00000000E+00  0.00000000E+00
  0.00000000E+00  0.00000000E+00  0.00000000E+00
  0.00000000E+00  0.00000000E+00  0.00000000E+00
  0.00000000E+00  0.00000000E+00  0.00000000E+00
  0.00000000E+00  0.00000000E+00  0.00000000E+00
  0.00000000E+00  0.00000000E+00  0.00000000E+00
  0.00000000E+00  0.00000000E+00  0.00000000E+00
  0.00000000E+00  0.00000000E+00  0.00000000E+00
  0.00000000E+00  0.00000000E+00  0.00000000E+00
  0.00000000E+00  0.00000000E+00  0.00000000E+00
  0.00000000E+00  0.00000000E+00  0.00000000E+00
  0.00000000E+00  0.00000000E+00  0.00000000E+00
  0.00000000E+00  0.00000000E+00  0.00000000E+00
  0.00000000E+00  0.00000000E+00  0.00000000E+00
  0.00000000E+00  0.00000000E+00  0.00000000E+00
  0.00000000E+00  0.00000000E+00  0.00000000E+00
  0.00000000E+00  0.00000000E+00  0.00000000E+00
  0.00000000E+00  0.00000000E+00  0.00000000E+00
  0.00000000E+00  0.00000000E+00  0.00000000E+00
  0.00000000E+00  0.00000000E+00  0.00000000E+00
  0.00000000E+00  0.00000000E+00  0.00000000E+00
  0.00000000E+00  0.00000000E+00  0.00000000E+00
  0.00000000E+00  0.00000000E+00  0.00000000E+00
  0.00000000E+00  0.00000000E+00  0.00000000E+00
  0.00000000E+00  0.00000000E+00  0.00000000E+00
  0.00000000E+00  0.00000000E+00  0.00000000E+00
  0.00000000E+00  0.00000000E+00  0.00000000E+00
  0.00000000E+00  0.00000000E+00  0.00000000E+00
  0.00000000E+00  0.00000000E+00  0.00000000E+00
  0.00000000E+00  0.00000000E+00  0.00000000E+00
  0.00000000E+00  0.00000000E+00  0.00000000E+00
  0.00000000E+00  0.00000000E+00  0.00000000E+00
  0.00000000E+00  0.00000000E+00  0.00000000E+00
  0.00000000E+00  0.00000000E+00  0.00000000E+00
  0.00000000E+00  0.00000000E+00  0.00000000E+00
  0.00000000E+00  0.00000000E+00  0.00000000E+00
  0.00000000E+00  0.00000000E+00  0.00000000E+00
  0.00000000E+00  0.00000000E+00  0.00000000E+00
  0.00000000E+00  0.00000000E+00  0.00000000E+00
  0.00000000E+00  0.00000000E+00  0.00000000E+00
  0.00000000E+00  0.00000000E+00  0.00000000E+00
  0.00000000E+00  0.00000000E+00  0.00000000E+00
  0.00000000E+00  0.00000000E+00  0.00000000E+00
  0.00000000E+00  0.00000000E+00  0.00000000E+00
  0.00000000E+00  0.00000000E+00  0.00000000E+00
  0.00000000E+00  0.00000000E+00  0.00000000E+00
  0.00000000E+00  0.00000000E+00  0.00000000E+00
  0.00000000E+00  0.00000000E+00  0.00000000E+00
  0.00000000E+00  0.00000000E+00  0.00000000E+00
  0.00000000E+00  0.00000000E+00  0.00000000E+00
  0.00000000E+00  0.00000000E+00  0.00000000E+00
  0.00000000E+00  0.00000000E+00  0.00000000E+00
  0.00000000E+00  0.00000000E+00  0.00000000E+00
  0.00000000E+00  0.00000000E+00  0.00000000E+00
  0.00000000E+00  0.00000000E+00  0.00000000E+00
  0.00000000E+00  0.00000000E+00  0.00000000E+00
  0.00000000E+00  0.00000000E+00  0.00000000E+00
