44-ZrHfNbMoW                            
   1.00000000000000     
     8.9887090506638359    0.0148353238997771    0.0116499365716043
     0.0207698343373472    9.0285761739390118   -0.0129804730544803
     0.0439288170130500   -0.0284616039042090    8.9926041744084841
  Zr              W               Hf              N               C               Mo              Nb            
     7     6     7    13    19     6     6
Direct
  0.0019459199251267  0.0000466600413311  0.9914667178877783
  0.2574672477952599  0.9984533649516120  0.2556087521910705
  0.2467245784252565  0.5017718311620002  0.2474044938153791
  0.5010542290008270  0.4988846414917377  0.9996846016315690
  0.5029835489414551  0.2412136058398687  0.7453699692284494
  0.9992975443019868  0.4995002128027373  0.5030319730563021
  0.4998175671049235  0.7598887848881519  0.7522285938732188
  0.9892893139166635  0.2305589710712405  0.2728625885561791
  0.7697524791150073  0.7418805355176663  0.9957381520068580
  0.0173221446482003  0.2397459665267827  0.7305258289084545
  0.7567796360817499  0.2671318124507452  0.4939185816119814
  0.9990222840334853  0.7251972217465364  0.7606081336735232
  0.2578377933358855  0.4997431546658723  0.7525227132281239
  0.2467822862222589  0.2485472080532093  0.9954567277600509
  0.5068277589076696  0.2511040654874423  0.2482592305137920
  0.7443926668425208  0.9937346407192811  0.2612083402559780
  0.7552899616123663  0.2526039272372461  0.9910085010281130
  0.2511671966222525  0.7557505468134117  0.9999630928877844
  0.2565800510708008  0.2494545246579447  0.5025443077676959
  0.2466277420555817  0.7516000810202624  0.5050230411923136
  0.2477868050209612  0.2486388241965425  0.2496309218284052
  0.2598212638840293  0.0031507923957395  0.9979713964838883
  0.0008945114814452  0.2526302587778134  0.0092558107967291
  0.7529526497772970  0.2464289476865660  0.2484472372816420
  0.7520425289025756  0.9965824820378436  0.0077129456940781
  0.5045863888630864  0.0007789324712036  0.2349062413658765
  0.9948544296490240  0.4854881715077592  0.2466401808459031
  0.5062922218320841  0.7578391044137295  0.0048042367959010
  0.9734292720408528  0.0025019232512534  0.7457944006620933
  0.7598885968513195  0.2451383764133896  0.7444439331647160
  0.7444608532378666  0.0069584456815711  0.5060250570768902
  0.5071657994873926  0.2477261807923056  0.4931339752162948
  0.4853062741555915  0.0013193433603914  0.7338769472353364
  0.9970114518150066  0.9991044254600717  0.2547582334452455
  0.5030320966465154  0.2502139317759681  0.9995114307041222
  0.2506779751322291  0.7497287546908041  0.2509577762883943
  0.2452995104359960  0.5031765124171697  0.9944797666883090
  0.0038185098011783  0.7512215345764078  0.0027797602327641
  0.7497868604334457  0.7470937811862767  0.2447915225369204
  0.7552381402451257  0.5043804017207963  0.9994773329871319
  0.5041832424278538  0.5013786786618687  0.2545418920100566
  0.2502182482804438  0.2571154711826859  0.7486864158122305
  0.2538424464782035  0.9996942392614698  0.5100585224344535
  0.9989346236257298  0.2454609914677857  0.5048604152396948
  0.2400000926626172  0.7524473902259809  0.7528104769670487
  0.2541400786058344  0.5000871407347288  0.5036642977582900
  0.9957207573337522  0.7530560009921186  0.5085857667672142
  0.0007592229566559  0.4872073917909673  0.7566963587662070
  0.7551158349589790  0.7545526871661115  0.7522504095101806
  0.7470620243469179  0.4998865044566461  0.4984683470432532
  0.4986000650545789  0.7485689648071790  0.5015679031023319
  0.4969636440118905  0.5015096529232048  0.7449761532276535
  0.5175442320284436  0.0126960604762803  0.9781745074445006
  0.9966575470342101  0.5163816097460090  0.9895184722611581
  0.5030874214119407  0.7478718067162555  0.2623755814735627
  0.2209586151125188  0.0139345018308711  0.7481351525119669
  0.4907985377389177  0.9779383355998682  0.4819588066182365
  0.7250247309038867  0.9878708168840258  0.7729098200085459
  0.0004940097977747  0.7661343602195608  0.2514852202481306
  0.7486631434027947  0.5084153954584032  0.2486462541684443
  0.0060942049826214  0.9996073353993921  0.5079757474371013
  0.4996512821653264  0.5129416105814683  0.4989536813008459
  0.7433912282040133  0.5099302726046009  0.7501503746783641
  0.7507870528217786  0.7383996498538379  0.4987161108052912
 
  0.00000000E+00  0.00000000E+00  0.00000000E+00
  0.00000000E+00  0.00000000E+00  0.00000000E+00
  0.00000000E+00  0.00000000E+00  0.00000000E+00
  0.00000000E+00  0.00000000E+00  0.00000000E+00
  0.00000000E+00  0.00000000E+00  0.00000000E+00
  0.00000000E+00  0.00000000E+00  0.00000000E+00
  0.00000000E+00  0.00000000E+00  0.00000000E+00
  0.00000000E+00  0.00000000E+00  0.00000000E+00
  0.00000000E+00  0.00000000E+00  0.00000000E+00
  0.00000000E+00  0.00000000E+00  0.00000000E+00
  0.00000000E+00  0.00000000E+00  0.00000000E+00
  0.00000000E+00  0.00000000E+00  0.00000000E+00
  0.00000000E+00  0.00000000E+00  0.00000000E+00
  0.00000000E+00  0.00000000E+00  0.00000000E+00
  0.00000000E+00  0.00000000E+00  0.00000000E+00
  0.00000000E+00  0.00000000E+00  0.00000000E+00
  0.00000000E+00  0.00000000E+00  0.00000000E+00
  0.00000000E+00  0.00000000E+00  0.00000000E+00
  0.00000000E+00  0.00000000E+00  0.00000000E+00
  0.00000000E+00  0.00000000E+00  0.00000000E+00
  0.00000000E+00  0.00000000E+00  0.00000000E+00
  0.00000000E+00  0.00000000E+00  0.00000000E+00
  0.00000000E+00  0.00000000E+00  0.00000000E+00
  0.00000000E+00  0.00000000E+00  0.00000000E+00
  0.00000000E+00  0.00000000E+00  0.00000000E+00
  0.00000000E+00  0.00000000E+00  0.00000000E+00
  0.00000000E+00  0.00000000E+00  0.00000000E+00
  0.00000000E+00  0.00000000E+00  0.00000000E+00
  0.00000000E+00  0.00000000E+00  0.00000000E+00
  0.00000000E+00  0.00000000E+00  0.00000000E+00
  0.00000000E+00  0.00000000E+00  0.00000000E+00
  0.00000000E+00  0.00000000E+00  0.00000000E+00
  0.00000000E+00  0.00000000E+00  0.00000000E+00
  0.00000000E+00  0.00000000E+00  0.00000000E+00
  0.00000000E+00  0.00000000E+00  0.00000000E+00
  0.00000000E+00  0.00000000E+00  0.00000000E+00
  0.00000000E+00  0.00000000E+00  0.00000000E+00
  0.00000000E+00  0.00000000E+00  0.00000000E+00
  0.00000000E+00  0.00000000E+00  0.00000000E+00
  0.00000000E+00  0.00000000E+00  0.00000000E+00
  0.00000000E+00  0.00000000E+00  0.00000000E+00
  0.00000000E+00  0.00000000E+00  0.00000000E+00
  0.00000000E+00  0.00000000E+00  0.00000000E+00
  0.00000000E+00  0.00000000E+00  0.00000000E+00
  0.00000000E+00  0.00000000E+00  0.00000000E+00
  0.00000000E+00  0.00000000E+00  0.00000000E+00
  0.00000000E+00  0.00000000E+00  0.00000000E+00
  0.00000000E+00  0.00000000E+00  0.00000000E+00
  0.00000000E+00  0.00000000E+00  0.00000000E+00
  0.00000000E+00  0.00000000E+00  0.00000000E+00
  0.00000000E+00  0.00000000E+00  0.00000000E+00
  0.00000000E+00  0.00000000E+00  0.00000000E+00
  0.00000000E+00  0.00000000E+00  0.00000000E+00
  0.00000000E+00  0.00000000E+00  0.00000000E+00
  0.00000000E+00  0.00000000E+00  0.00000000E+00
  0.00000000E+00  0.00000000E+00  0.00000000E+00
  0.00000000E+00  0.00000000E+00  0.00000000E+00
  0.00000000E+00  0.00000000E+00  0.00000000E+00
  0.00000000E+00  0.00000000E+00  0.00000000E+00
  0.00000000E+00  0.00000000E+00  0.00000000E+00
  0.00000000E+00  0.00000000E+00  0.00000000E+00
  0.00000000E+00  0.00000000E+00  0.00000000E+00
  0.00000000E+00  0.00000000E+00  0.00000000E+00
  0.00000000E+00  0.00000000E+00  0.00000000E+00
