126-NbTaCrMoW                           
   1.00000000000000     
     8.6926996693593264   -0.0122390277743895    0.0031490202274965
    -0.0066898575169189    8.7825782197354787    0.0015803931330593
     0.0342183730777062   -0.0134037555896730    8.8113784701538052
   Ta   W    Nb   N    C    Cr   Mo
     7     6     7    13    19     6     6
Direct
 -0.0008804330998406 -0.0084643205449607  0.0072452077012531
  0.2582534737276044  0.9923225886152773  0.2559478022598473
  0.2522185749826279  0.5085897019657479  0.2480790040331759
  0.5036439070963663  0.5011001712451133  0.9938699524532350
  0.5021273466135092  0.2400920666457848  0.7560089287492023
  0.9936457038984939  0.5042959877518497  0.5044528920327093
  0.5010341724012272  0.7588159941732375  0.7395728365717195
  0.9891654608131857  0.2279864351528199  0.2613615755942512
  0.7624379567129421  0.7425552862571613 -0.0025731204562624
  0.0150099896460997  0.2344628184961687  0.7357962665513503
  0.7610197283489005  0.2335921442532617  0.4812663247071886
  0.0028155998461351  0.7371169324318443  0.7523064591234412
  0.2496538846968713  0.5018435397644199  0.7520727901875106
  0.2517080813776703  0.2598322135957509  0.9917694810565963
  0.5063681717287301  0.2434936119319721  0.2517980537501737
  0.7362869940760564  0.9978951166698391  0.2716906769445729
  0.7472633794826855  0.2559187322933230  0.9857476523511413
  0.2494283989681743  0.7465553250181263 -0.0001880601510794
  0.2558412761811560  0.2505388736129322  0.5055422515567347
  0.2484861793934904  0.7539887080072611  0.5012927416622446
  0.2440518154065106  0.2493914529420307  0.2512117180428468
  0.2424940664777090  0.0015458480216381  0.0065481735004599
 -0.0013903877770250  0.2387883642070202  0.0098287395524282
  0.7531044033971723  0.2533972919113589  0.2377835171166048
  0.7489969473373792  0.9951643352970163  0.0038593525688124
  0.4966609528548780  0.9850851636595069  0.2344648757472268
  0.0021879859362445  0.4876582903228855  0.2595527347761732
  0.5034809549517679  0.7515659435119177 -0.0099217544556461
  0.9962400681486137 -0.0089444141522261  0.7623473462700069
  0.7547540010338836  0.2248400939000887  0.7415059725135198
  0.7409517632752267 -0.0016065663070142  0.5205962546667489
  0.5100425069244122  0.2505896090261609  0.5073371096248338
  0.4918717847158788  0.0001425055670431  0.7569230126879002
 -0.0022494719134161 -0.0030962411188094  0.2627567157286588
  0.4988215629402271  0.2493199008525425  0.0026205406439908
  0.2589233551948797  0.7503790329388783  0.2500362364272912
  0.2396876622947194  0.5007270263390383 -0.0000663321320940
  0.0024588099247368  0.7421577821124469  0.0018693983071107
  0.7391723470838282  0.7505846074696609  0.2413808482568822
  0.7644978467354380  0.4985401039046784  0.0085956023322004
  0.4951528773517186  0.5055517895907955  0.2455814637183653
  0.2542146918040332  0.2431349598827912  0.7504450984522395
  0.2654758212274420  0.0026717797499706  0.5049167463935454
  0.0031464673943966  0.2565756217742171  0.5010859933754696
  0.2501179944355288  0.7610009680146779  0.7509673802494435
  0.2499794687892260  0.5020812316347412  0.5007862722181552
  0.9969826078498600  0.7560384508880096  0.5037296248086114
  0.9958559813515143  0.4861016027326254  0.7512644924762920
  0.7539706485162269  0.7621625748291683  0.7458590951723644
  0.7467042648642602  0.4858604438644222  0.5069952226235683
  0.5030495180260178  0.7687901493523643  0.4966033368204845
  0.4981639020041373  0.5016757456174680  0.7447929754400614
  0.5275444237835927  0.0228457353664372  0.9810554313444947
  0.9975133853856304  0.5265523272159379  0.9650013660000613
  0.5042712363876535  0.7377470710734697  0.2824697888417204
  0.2281284594187356  0.0060244688467550  0.7226629076365285
  0.4985084796826268  0.0231153176119338  0.4656164355358285
  0.7199160306279427  0.9836028740855954  0.7774122785019612
 -0.0036067135524058  0.7654239546554262  0.2446827554388157
  0.7307789653448539  0.5155439132520245  0.2587900670712469
  0.0113464842287628  0.0130360223382439  0.5155720137571469
  0.5062310949183156  0.5191634268455355  0.4919475834427958
  0.7470195891955502  0.5199308202509288  0.7579951369188226
  0.7492478751292138  0.7366064437836717  0.4914768909070331
 
  0.00000000E+00  0.00000000E+00  0.00000000E+00
  0.00000000E+00  0.00000000E+00  0.00000000E+00
  0.00000000E+00  0.00000000E+00  0.00000000E+00
  0.00000000E+00  0.00000000E+00  0.00000000E+00
  0.00000000E+00  0.00000000E+00  0.00000000E+00
  0.00000000E+00  0.00000000E+00  0.00000000E+00
  0.00000000E+00  0.00000000E+00  0.00000000E+00
  0.00000000E+00  0.00000000E+00  0.00000000E+00
  0.00000000E+00  0.00000000E+00  0.00000000E+00
  0.00000000E+00  0.00000000E+00  0.00000000E+00
  0.00000000E+00  0.00000000E+00  0.00000000E+00
  0.00000000E+00  0.00000000E+00  0.00000000E+00
  0.00000000E+00  0.00000000E+00  0.00000000E+00
  0.00000000E+00  0.00000000E+00  0.00000000E+00
  0.00000000E+00  0.00000000E+00  0.00000000E+00
  0.00000000E+00  0.00000000E+00  0.00000000E+00
  0.00000000E+00  0.00000000E+00  0.00000000E+00
  0.00000000E+00  0.00000000E+00  0.00000000E+00
  0.00000000E+00  0.00000000E+00  0.00000000E+00
  0.00000000E+00  0.00000000E+00  0.00000000E+00
  0.00000000E+00  0.00000000E+00  0.00000000E+00
  0.00000000E+00  0.00000000E+00  0.00000000E+00
  0.00000000E+00  0.00000000E+00  0.00000000E+00
  0.00000000E+00  0.00000000E+00  0.00000000E+00
  0.00000000E+00  0.00000000E+00  0.00000000E+00
  0.00000000E+00  0.00000000E+00  0.00000000E+00
  0.00000000E+00  0.00000000E+00  0.00000000E+00
  0.00000000E+00  0.00000000E+00  0.00000000E+00
  0.00000000E+00  0.00000000E+00  0.00000000E+00
  0.00000000E+00  0.00000000E+00  0.00000000E+00
  0.00000000E+00  0.00000000E+00  0.00000000E+00
  0.00000000E+00  0.00000000E+00  0.00000000E+00
  0.00000000E+00  0.00000000E+00  0.00000000E+00
  0.00000000E+00  0.00000000E+00  0.00000000E+00
  0.00000000E+00  0.00000000E+00  0.00000000E+00
  0.00000000E+00  0.00000000E+00  0.00000000E+00
  0.00000000E+00  0.00000000E+00  0.00000000E+00
  0.00000000E+00  0.00000000E+00  0.00000000E+00
  0.00000000E+00  0.00000000E+00  0.00000000E+00
  0.00000000E+00  0.00000000E+00  0.00000000E+00
  0.00000000E+00  0.00000000E+00  0.00000000E+00
  0.00000000E+00  0.00000000E+00  0.00000000E+00
  0.00000000E+00  0.00000000E+00  0.00000000E+00
  0.00000000E+00  0.00000000E+00  0.00000000E+00
  0.00000000E+00  0.00000000E+00  0.00000000E+00
  0.00000000E+00  0.00000000E+00  0.00000000E+00
  0.00000000E+00  0.00000000E+00  0.00000000E+00
  0.00000000E+00  0.00000000E+00  0.00000000E+00
  0.00000000E+00  0.00000000E+00  0.00000000E+00
  0.00000000E+00  0.00000000E+00  0.00000000E+00
  0.00000000E+00  0.00000000E+00  0.00000000E+00
  0.00000000E+00  0.00000000E+00  0.00000000E+00
  0.00000000E+00  0.00000000E+00  0.00000000E+00
  0.00000000E+00  0.00000000E+00  0.00000000E+00
  0.00000000E+00  0.00000000E+00  0.00000000E+00
  0.00000000E+00  0.00000000E+00  0.00000000E+00
  0.00000000E+00  0.00000000E+00  0.00000000E+00
  0.00000000E+00  0.00000000E+00  0.00000000E+00
  0.00000000E+00  0.00000000E+00  0.00000000E+00
  0.00000000E+00  0.00000000E+00  0.00000000E+00
  0.00000000E+00  0.00000000E+00  0.00000000E+00
  0.00000000E+00  0.00000000E+00  0.00000000E+00
  0.00000000E+00  0.00000000E+00  0.00000000E+00
  0.00000000E+00  0.00000000E+00  0.00000000E+00
