43-ZrHfNbTaW                            
   1.00000000000000     
     9.0315217184035710    0.0008932748689934    0.0117381862172423
     0.0066764593092055    9.0713275012177625   -0.0016985129020106
     0.0441728354268971   -0.0174304042038470    9.0139593633021597
   Zr   W    Hf   N    C    Ta   Nb
     7     6     7    13    19     6     6
Direct
  0.9937506528637456  0.9986990368031741  0.9979143060487843
  0.2496958138839389  0.9999632743199456  0.2529460329945934
  0.2514898944860988  0.5004334828876225  0.2501803183710578
  0.4999675179974332  0.5001054804956482  0.0001275594277601
  0.4990448063204056  0.2478958551651615  0.7454840617233813
  0.9981721298087862  0.4999023252071453  0.4967609747421164
  0.4999575946079062  0.7522673395968837  0.7487276686813829
  0.9874153110582640  0.2301890421361605  0.2700753760462717
  0.7698467598474394  0.7363864546156194  0.9976978230074565
  0.0165093924654940  0.2753302502296933  0.7512582657672056
  0.7659823968432917  0.2626566978775671  0.4829821960854801
  0.9952614751215592  0.7248611839938803  0.7535003779520508
  0.2618355963135599  0.4921417757757141  0.7478874210252187
  0.2454734775254863  0.2503857689768552  0.9955341432520157
  0.5046314254649289  0.2540539091735354  0.2515979463354583
  0.7481535460702844  0.9958833904090127  0.2534083273255092
  0.7557053984768842  0.2586847447762963  0.9936482018139685
  0.2421877438960820  0.7496863783170085  0.9979825989139570
  0.2465880478083164  0.2511323350341428  0.5042746300638115
  0.2448107355845650  0.7500908777107895  0.5039000097759470
  0.2449383648126968  0.2485002468234754  0.2516389720982133
  0.2568463707226840  0.9997968993073343  0.9949996106957144
  0.0003496773770379  0.2533196218955283  0.0115070532215640
  0.7507331086670774  0.2483310947072539  0.2448612742749532
  0.7455480182181802  0.9997278117579995  0.0009465791484118
  0.5026045917500710  0.9999127388650138  0.2493257098662269
  0.9953066837821609  0.4894950208495246  0.2427519588312421
  0.5007422217389248  0.7608445657300891  0.0054637445899530
  0.9991497532879023  0.0071210654139122  0.7481937971820614
  0.7610764556490892  0.2408671766641177  0.7440111017647979
  0.7427436308677997  0.0057046759899322  0.5033219667748341
  0.5055833409483128  0.2414329801388106  0.4943954361011009
  0.5005741849919971  0.0002328503509190  0.7479537395221669
  0.9958550668478168  0.9994491841310946  0.2530770550855053
  0.5035598310689338  0.2436983800776531  0.0012996135402048
  0.2511208798067770  0.7509817781167953  0.2494426441519266
  0.2439779489088707  0.4998597828289419  0.9949020671320525
  0.9997925323396970  0.7461882038596670  0.0002523835345727
  0.7467117036517550  0.7483258808392605  0.2449744251337478
  0.7557665054073937  0.5031957871791306  0.9989752317088687
  0.5021782380001341  0.5019810628951333  0.2526195542851255
  0.2501352449167911  0.2490646426489533  0.7497094730768410
  0.2493915120682075  0.0003336818482893  0.5031499225320886
  0.9952359647286073  0.2485236733068135  0.5136717510079407
  0.2411720805136426  0.7522053580774042  0.7513255999240585
  0.2531740143683834  0.4998298929517446  0.5050136788604362
  0.9961023562205753  0.7551164228193130  0.5071358704425748
  0.0027882447180261  0.5004499649711462  0.7521953863540247
  0.7529935275132686  0.7525130010332504  0.7523863615436497
  0.7469581466588409  0.4952549453655308  0.4989232574762852
  0.4997799982238718  0.7510054030159665  0.4968420356570107
  0.4985629434946688  0.4999255609262931  0.7452958155591247
  0.5084891363174293  0.0078577259240475  0.9931452025728831
  0.9992496875945918  0.5032079050340386  0.0006311351589758
  0.4998821230005177  0.7451592714427093  0.2535994976360811
  0.2415228316920448  0.0041254770375545  0.7439730593057021
  0.4901303417427485  0.9879871433370369  0.5027624247930120
  0.7537697456977241  0.9890730696697005  0.7519723489272891
  0.9976022805667384  0.7655302805872566  0.2536782881043962
  0.7430901361728104  0.5060471217196465  0.2506382991832652
  0.0045061541203353  0.0021620037482961  0.4988309239188879
  0.5003264558420284  0.5128469271914327  0.4975895677754920
  0.7403399251650953  0.5122871821893185  0.7479108123882909
  0.7531586993732873  0.7397766842308684  0.4988172658050445
 
  0.00000000E+00  0.00000000E+00  0.00000000E+00
  0.00000000E+00  0.00000000E+00  0.00000000E+00
  0.00000000E+00  0.00000000E+00  0.00000000E+00
  0.00000000E+00  0.00000000E+00  0.00000000E+00
  0.00000000E+00  0.00000000E+00  0.00000000E+00
  0.00000000E+00  0.00000000E+00  0.00000000E+00
  0.00000000E+00  0.00000000E+00  0.00000000E+00
  0.00000000E+00  0.00000000E+00  0.00000000E+00
  0.00000000E+00  0.00000000E+00  0.00000000E+00
  0.00000000E+00  0.00000000E+00  0.00000000E+00
  0.00000000E+00  0.00000000E+00  0.00000000E+00
  0.00000000E+00  0.00000000E+00  0.00000000E+00
  0.00000000E+00  0.00000000E+00  0.00000000E+00
  0.00000000E+00  0.00000000E+00  0.00000000E+00
  0.00000000E+00  0.00000000E+00  0.00000000E+00
  0.00000000E+00  0.00000000E+00  0.00000000E+00
  0.00000000E+00  0.00000000E+00  0.00000000E+00
  0.00000000E+00  0.00000000E+00  0.00000000E+00
  0.00000000E+00  0.00000000E+00  0.00000000E+00
  0.00000000E+00  0.00000000E+00  0.00000000E+00
  0.00000000E+00  0.00000000E+00  0.00000000E+00
  0.00000000E+00  0.00000000E+00  0.00000000E+00
  0.00000000E+00  0.00000000E+00  0.00000000E+00
  0.00000000E+00  0.00000000E+00  0.00000000E+00
  0.00000000E+00  0.00000000E+00  0.00000000E+00
  0.00000000E+00  0.00000000E+00  0.00000000E+00
  0.00000000E+00  0.00000000E+00  0.00000000E+00
  0.00000000E+00  0.00000000E+00  0.00000000E+00
  0.00000000E+00  0.00000000E+00  0.00000000E+00
  0.00000000E+00  0.00000000E+00  0.00000000E+00
  0.00000000E+00  0.00000000E+00  0.00000000E+00
  0.00000000E+00  0.00000000E+00  0.00000000E+00
  0.00000000E+00  0.00000000E+00  0.00000000E+00
  0.00000000E+00  0.00000000E+00  0.00000000E+00
  0.00000000E+00  0.00000000E+00  0.00000000E+00
  0.00000000E+00  0.00000000E+00  0.00000000E+00
  0.00000000E+00  0.00000000E+00  0.00000000E+00
  0.00000000E+00  0.00000000E+00  0.00000000E+00
  0.00000000E+00  0.00000000E+00  0.00000000E+00
  0.00000000E+00  0.00000000E+00  0.00000000E+00
  0.00000000E+00  0.00000000E+00  0.00000000E+00
  0.00000000E+00  0.00000000E+00  0.00000000E+00
  0.00000000E+00  0.00000000E+00  0.00000000E+00
  0.00000000E+00  0.00000000E+00  0.00000000E+00
  0.00000000E+00  0.00000000E+00  0.00000000E+00
  0.00000000E+00  0.00000000E+00  0.00000000E+00
  0.00000000E+00  0.00000000E+00  0.00000000E+00
  0.00000000E+00  0.00000000E+00  0.00000000E+00
  0.00000000E+00  0.00000000E+00  0.00000000E+00
  0.00000000E+00  0.00000000E+00  0.00000000E+00
  0.00000000E+00  0.00000000E+00  0.00000000E+00
  0.00000000E+00  0.00000000E+00  0.00000000E+00
  0.00000000E+00  0.00000000E+00  0.00000000E+00
  0.00000000E+00  0.00000000E+00  0.00000000E+00
  0.00000000E+00  0.00000000E+00  0.00000000E+00
  0.00000000E+00  0.00000000E+00  0.00000000E+00
  0.00000000E+00  0.00000000E+00  0.00000000E+00
  0.00000000E+00  0.00000000E+00  0.00000000E+00
  0.00000000E+00  0.00000000E+00  0.00000000E+00
  0.00000000E+00  0.00000000E+00  0.00000000E+00
  0.00000000E+00  0.00000000E+00  0.00000000E+00
  0.00000000E+00  0.00000000E+00  0.00000000E+00
  0.00000000E+00  0.00000000E+00  0.00000000E+00
  0.00000000E+00  0.00000000E+00  0.00000000E+00
