43-ZrHfNbTaW                            
   1.00000000000000     
     9.0315217184035710    0.0008932748689934    0.0117381862172423
     0.0066764593092055    9.0713275012177625   -0.0016985129020106
     0.0441728354268971   -0.0174304042038470    9.0139593633021597
   Zr   W    Hf   N    C    Ta   Nb
     7     6     7    13    19     6     6
Direct
  0.9937506528637475  0.9986990368031762  0.9979143060487871
  0.2496958138839405 -0.0000367256800542  0.2529460329945968
  0.2514898944860968  0.5004334828876202  0.2501803183710553
  0.4999675179974321  0.5001054804956511  0.0001275594277582
  0.4990448063204070  0.2478958551651625  0.7454840617233788
  0.9981721298087851  0.4999023252071442  0.4967609747421148
  0.4999575946079030  0.7522673395968827  0.7487276686813833
  0.9874153110582654  0.2301890421361603  0.2700753760462707
  0.7698467598474390  0.7363864546156167 -0.0023021769925425
  0.0165093924654912  0.2753302502296934  0.7512582657672028
  0.7659823968432896  0.2626566978775661  0.4829821960854812
  0.9952614751215616  0.7248611839938791  0.7535003779520478
  0.2618355963135567  0.4921417757757141  0.7478874210252179
  0.2454734775254838  0.2503857689768519  0.9955341432520154
  0.5046314254649311  0.2540539091735323  0.2515979463354607
  0.7481535460702814  0.9958833904090113  0.2534083273255112
  0.7557053984768856  0.2586847447762969  0.9936482018139660
  0.2421877438960826  0.7496863783170103  0.9979825989139539
  0.2465880478083157  0.2511323350341413  0.5042746300638117
  0.2448107355845618  0.7500908777107878  0.5039000097759463
  0.2449383648126973  0.2485002468234727  0.2516389720982121
  0.2568463707226858  0.9997968993073351  0.9949996106957136
  0.0003496773770367  0.2533196218955281  0.0115070532215644
  0.7507331086670748  0.2483310947072547  0.2448612742749533
  0.7455480182181801 -0.0002721882420034  0.0009465791484097
  0.5026045917500725 -0.0000872611349891  0.2493257098662255
  0.9953066837821594  0.4894950208495228  0.2427519588312406
  0.5007422217389240  0.7608445657300861  0.0054637445899528
  0.9991497532879011  0.0071210654139139  0.7481937971820617
  0.7610764556490891  0.2408671766641195  0.7440111017647977
  0.7427436308677963  0.0057046759899327  0.5033219667748333
  0.5055833409483130  0.2414329801388126  0.4943954361011041
  0.5005741849919961  0.0002328503509210  0.7479537395221699
  0.9958550668478144  0.9994491841310917  0.2530770550855028
  0.5035598310689366  0.2436983800776531  0.0012996135402050
  0.2511208798067772  0.7509817781167945  0.2494426441519252
  0.2439779489088701  0.4998597828289409  0.9949020671320558
  0.9997925323396964  0.7461882038596697  0.0002523835345737
  0.7467117036517585  0.7483258808392595  0.2449744251337500
  0.7557665054073942  0.5031957871791320 -0.0010247682911333
  0.5021782380001316  0.5019810628951332  0.2526195542851282
  0.2501352449167890  0.2490646426489530  0.7497094730768388
  0.2493915120682083  0.0003336818482889  0.5031499225320903
  0.9952359647286063  0.2485236733068101  0.5136717510079415
  0.2411720805136411  0.7522053580774015  0.7513255999240608
  0.2531740143683822  0.4998298929517465  0.5050136788604341
  0.9961023562205763  0.7551164228193142  0.5071358704425716
  0.0027882447180228  0.5004499649711475  0.7521953863540216
  0.7529935275132705  0.7525130010332522  0.7523863615436481
  0.7469581466588375  0.4952549453655311  0.4989232574762843
  0.4997799982238721  0.7510054030159642  0.4968420356570140
  0.4985629434946667  0.4999255609262904  0.7452958155591225
  0.5084891363174323  0.0078577259240510  0.9931452025728845
  0.9992496875945922  0.5032079050340400  0.0006311351589740
  0.4998821230005165  0.7451592714427080  0.2535994976360790
  0.2415228316920481  0.0041254770375533  0.7439730593057053
  0.4901303417427490  0.9879871433370365  0.5027624247930106
  0.7537697456977223  0.9890730696697008  0.7519723489272904
  0.9976022805667356  0.7655302805872536  0.2536782881043933
  0.7430901361728086  0.5060471217196459  0.2506382991832618
  0.0045061541203353  0.0021620037482970  0.4988309239188888
  0.5003264558420278  0.5128469271914355  0.4975895677754946
  0.7403399251650942  0.5122871821893211  0.7479108123882913
  0.7531586993732841  0.7397766842308657  0.4988172658050459
 
  0.00000000E+00  0.00000000E+00  0.00000000E+00
  0.00000000E+00  0.00000000E+00  0.00000000E+00
  0.00000000E+00  0.00000000E+00  0.00000000E+00
  0.00000000E+00  0.00000000E+00  0.00000000E+00
  0.00000000E+00  0.00000000E+00  0.00000000E+00
  0.00000000E+00  0.00000000E+00  0.00000000E+00
  0.00000000E+00  0.00000000E+00  0.00000000E+00
  0.00000000E+00  0.00000000E+00  0.00000000E+00
  0.00000000E+00  0.00000000E+00  0.00000000E+00
  0.00000000E+00  0.00000000E+00  0.00000000E+00
  0.00000000E+00  0.00000000E+00  0.00000000E+00
  0.00000000E+00  0.00000000E+00  0.00000000E+00
  0.00000000E+00  0.00000000E+00  0.00000000E+00
  0.00000000E+00  0.00000000E+00  0.00000000E+00
  0.00000000E+00  0.00000000E+00  0.00000000E+00
  0.00000000E+00  0.00000000E+00  0.00000000E+00
  0.00000000E+00  0.00000000E+00  0.00000000E+00
  0.00000000E+00  0.00000000E+00  0.00000000E+00
  0.00000000E+00  0.00000000E+00  0.00000000E+00
  0.00000000E+00  0.00000000E+00  0.00000000E+00
  0.00000000E+00  0.00000000E+00  0.00000000E+00
  0.00000000E+00  0.00000000E+00  0.00000000E+00
  0.00000000E+00  0.00000000E+00  0.00000000E+00
  0.00000000E+00  0.00000000E+00  0.00000000E+00
  0.00000000E+00  0.00000000E+00  0.00000000E+00
  0.00000000E+00  0.00000000E+00  0.00000000E+00
  0.00000000E+00  0.00000000E+00  0.00000000E+00
  0.00000000E+00  0.00000000E+00  0.00000000E+00
  0.00000000E+00  0.00000000E+00  0.00000000E+00
  0.00000000E+00  0.00000000E+00  0.00000000E+00
  0.00000000E+00  0.00000000E+00  0.00000000E+00
  0.00000000E+00  0.00000000E+00  0.00000000E+00
  0.00000000E+00  0.00000000E+00  0.00000000E+00
  0.00000000E+00  0.00000000E+00  0.00000000E+00
  0.00000000E+00  0.00000000E+00  0.00000000E+00
  0.00000000E+00  0.00000000E+00  0.00000000E+00
  0.00000000E+00  0.00000000E+00  0.00000000E+00
  0.00000000E+00  0.00000000E+00  0.00000000E+00
  0.00000000E+00  0.00000000E+00  0.00000000E+00
  0.00000000E+00  0.00000000E+00  0.00000000E+00
  0.00000000E+00  0.00000000E+00  0.00000000E+00
  0.00000000E+00  0.00000000E+00  0.00000000E+00
  0.00000000E+00  0.00000000E+00  0.00000000E+00
  0.00000000E+00  0.00000000E+00  0.00000000E+00
  0.00000000E+00  0.00000000E+00  0.00000000E+00
  0.00000000E+00  0.00000000E+00  0.00000000E+00
  0.00000000E+00  0.00000000E+00  0.00000000E+00
  0.00000000E+00  0.00000000E+00  0.00000000E+00
  0.00000000E+00  0.00000000E+00  0.00000000E+00
  0.00000000E+00  0.00000000E+00  0.00000000E+00
  0.00000000E+00  0.00000000E+00  0.00000000E+00
  0.00000000E+00  0.00000000E+00  0.00000000E+00
  0.00000000E+00  0.00000000E+00  0.00000000E+00
  0.00000000E+00  0.00000000E+00  0.00000000E+00
  0.00000000E+00  0.00000000E+00  0.00000000E+00
  0.00000000E+00  0.00000000E+00  0.00000000E+00
  0.00000000E+00  0.00000000E+00  0.00000000E+00
  0.00000000E+00  0.00000000E+00  0.00000000E+00
  0.00000000E+00  0.00000000E+00  0.00000000E+00
  0.00000000E+00  0.00000000E+00  0.00000000E+00
  0.00000000E+00  0.00000000E+00  0.00000000E+00
  0.00000000E+00  0.00000000E+00  0.00000000E+00
  0.00000000E+00  0.00000000E+00  0.00000000E+00
  0.00000000E+00  0.00000000E+00  0.00000000E+00
