103-TiHfVNbCr                           
   1.00000000000000     
     8.6781369561895652    0.0162065208881174    0.0021740989287971
     0.0220176614130002    8.7158232496534751   -0.0228041002290949
     0.0334020907860950   -0.0376176776375488    8.7168324312543266
   Hf   V    Ti   N    C    Cr   Nb
     7     6     7    13    19     6     6
Direct
 -0.0008056928865312  0.0024763426329649  0.9928027396225326
  0.2678406234611949  0.0016554165373843  0.2458268311816615
  0.2424441911511383  0.4938922790035220  0.2469745719753956
  0.4979125830527159  0.5011744195912237  0.0006118264246529
  0.5114962699323498  0.2437699906336734  0.7430638216347217
 -0.0002688483998291  0.5001372082602914  0.5048528323346904
  0.4920093805565743  0.7566024166247557  0.7577850612307094
  0.9868386182600256  0.2329990212696841  0.2670973885340298
  0.7659018078924522  0.7409069797158011 -0.0003990819208703
  0.0027270945487686  0.2490535724110146  0.7330141022797529
  0.7611667932858324  0.2426393584827822  0.4835357725560521
  0.0023259147944266  0.7403459349503081  0.7569347169314427
  0.2455010972765482  0.4831016688589026  0.7518697238956225
  0.2450992044682688  0.2480611805669877  0.9911697936088698
  0.5094913734089344  0.2566123406419050  0.2522064586149853
  0.7371626931013356  0.9972775390346392  0.2463631789685381
  0.7569135499048133  0.2559406818788896  0.0033823574553092
  0.2424913436044999  0.7482197276238269  0.9953582653681395
  0.2516160944768298  0.2484728748726242  0.5030915107385672
  0.2479515945398699  0.7531703207594725  0.5060929016761083
  0.2492010492628947  0.2469677245884456  0.2486963132220963
  0.2536937545712952  0.0031054887999478  0.9931432825120370
  0.0017520475184857  0.2535194076152167  0.0011662420835209
  0.7519684009091890  0.2461811217758713  0.2480536651176712
  0.7464961161041139 -0.0020932322337767  0.0018577558204334
  0.5088101502687329  0.0031244552856161  0.2382560242222085
  0.9958509375727642  0.4917495551004659  0.2470159403708578
  0.4991721676198851  0.7588284175297533  0.0065422239488661
  0.9911405785378633  0.0068839819102193  0.7480981127838270
  0.7614510727357818  0.2462070420171094  0.7504457363994360
  0.7409449652680428  0.0112762951041242  0.4975291780851165
  0.5017589517279515  0.2429740662279499  0.4929638978167530
  0.5164604562327851  0.0003180158787078  0.7508215030759064
  0.9963752459630182  0.0041943307787666  0.2514378639599280
  0.5044415433954633  0.2407627858403004  0.0017503922186432
  0.2546304038333066  0.7489513183670893  0.2488352292365881
  0.2405594969539866  0.4986941477934201  0.9913949061877572
 -0.0005032755989694  0.7448747911478486 -0.0042620872438089
  0.7414422041994004  0.7529778388935949  0.2438189919529352
  0.7617006570012488  0.5025036314465235  0.0008281074725095
  0.5002157432854938  0.4981830694443476  0.2522544367480151
  0.2457767642311759  0.2487099526125325  0.7479457252982784
  0.2557529180007586  0.0014301005808648  0.5085943617183700
 -0.0002886662065058  0.2490942161025796  0.5012089613573640
  0.2366055996053623  0.7559724980903929  0.7525498571287448
  0.2513069947614802  0.4978584614807686  0.5051045976406068
 -0.0004613319604031  0.7537941162349366  0.5070213161268196
  0.0060150537896204  0.4971158651249807  0.7586117907240448
  0.7548753760523992  0.7563472356965836  0.7583736731329175
  0.7466773611862445  0.4954835670780656  0.4991292052037693
  0.4929351911290837  0.7616436286351145  0.4947104611209691
  0.4969647306373991  0.4998402982525867  0.7477979929180556
  0.5217850609558187  0.0119507755008378  0.9794234085752793
  0.0027420997425684  0.5124284530461719  0.9827041335767576
  0.4952637265333876  0.7340541587654048  0.2570275708769401
  0.2298241729750159  0.0185815308183796  0.7395543079178737
  0.4841044803260677  0.9870056803780646  0.5301376408384580
  0.7427391554923773  0.9744653784746016  0.7819892287721498
  0.0029638940013392  0.7602366374996488  0.2498525159791282
  0.7499783982439460  0.5043503682586264  0.2511886653532909
  0.0049930281458471  0.0041842740093077  0.5058678246692121
  0.4963753313801953  0.5105900399213391  0.4999634498275738
  0.7539777238513086  0.5075473384675991  0.7523118055374272
  0.7457149593325423  0.7606216483084207  0.4966491526037781
 
  0.00000000E+00  0.00000000E+00  0.00000000E+00
  0.00000000E+00  0.00000000E+00  0.00000000E+00
  0.00000000E+00  0.00000000E+00  0.00000000E+00
  0.00000000E+00  0.00000000E+00  0.00000000E+00
  0.00000000E+00  0.00000000E+00  0.00000000E+00
  0.00000000E+00  0.00000000E+00  0.00000000E+00
  0.00000000E+00  0.00000000E+00  0.00000000E+00
  0.00000000E+00  0.00000000E+00  0.00000000E+00
  0.00000000E+00  0.00000000E+00  0.00000000E+00
  0.00000000E+00  0.00000000E+00  0.00000000E+00
  0.00000000E+00  0.00000000E+00  0.00000000E+00
  0.00000000E+00  0.00000000E+00  0.00000000E+00
  0.00000000E+00  0.00000000E+00  0.00000000E+00
  0.00000000E+00  0.00000000E+00  0.00000000E+00
  0.00000000E+00  0.00000000E+00  0.00000000E+00
  0.00000000E+00  0.00000000E+00  0.00000000E+00
  0.00000000E+00  0.00000000E+00  0.00000000E+00
  0.00000000E+00  0.00000000E+00  0.00000000E+00
  0.00000000E+00  0.00000000E+00  0.00000000E+00
  0.00000000E+00  0.00000000E+00  0.00000000E+00
  0.00000000E+00  0.00000000E+00  0.00000000E+00
  0.00000000E+00  0.00000000E+00  0.00000000E+00
  0.00000000E+00  0.00000000E+00  0.00000000E+00
  0.00000000E+00  0.00000000E+00  0.00000000E+00
  0.00000000E+00  0.00000000E+00  0.00000000E+00
  0.00000000E+00  0.00000000E+00  0.00000000E+00
  0.00000000E+00  0.00000000E+00  0.00000000E+00
  0.00000000E+00  0.00000000E+00  0.00000000E+00
  0.00000000E+00  0.00000000E+00  0.00000000E+00
  0.00000000E+00  0.00000000E+00  0.00000000E+00
  0.00000000E+00  0.00000000E+00  0.00000000E+00
  0.00000000E+00  0.00000000E+00  0.00000000E+00
  0.00000000E+00  0.00000000E+00  0.00000000E+00
  0.00000000E+00  0.00000000E+00  0.00000000E+00
  0.00000000E+00  0.00000000E+00  0.00000000E+00
  0.00000000E+00  0.00000000E+00  0.00000000E+00
  0.00000000E+00  0.00000000E+00  0.00000000E+00
  0.00000000E+00  0.00000000E+00  0.00000000E+00
  0.00000000E+00  0.00000000E+00  0.00000000E+00
  0.00000000E+00  0.00000000E+00  0.00000000E+00
  0.00000000E+00  0.00000000E+00  0.00000000E+00
  0.00000000E+00  0.00000000E+00  0.00000000E+00
  0.00000000E+00  0.00000000E+00  0.00000000E+00
  0.00000000E+00  0.00000000E+00  0.00000000E+00
  0.00000000E+00  0.00000000E+00  0.00000000E+00
  0.00000000E+00  0.00000000E+00  0.00000000E+00
  0.00000000E+00  0.00000000E+00  0.00000000E+00
  0.00000000E+00  0.00000000E+00  0.00000000E+00
  0.00000000E+00  0.00000000E+00  0.00000000E+00
  0.00000000E+00  0.00000000E+00  0.00000000E+00
  0.00000000E+00  0.00000000E+00  0.00000000E+00
  0.00000000E+00  0.00000000E+00  0.00000000E+00
  0.00000000E+00  0.00000000E+00  0.00000000E+00
  0.00000000E+00  0.00000000E+00  0.00000000E+00
  0.00000000E+00  0.00000000E+00  0.00000000E+00
  0.00000000E+00  0.00000000E+00  0.00000000E+00
  0.00000000E+00  0.00000000E+00  0.00000000E+00
  0.00000000E+00  0.00000000E+00  0.00000000E+00
  0.00000000E+00  0.00000000E+00  0.00000000E+00
  0.00000000E+00  0.00000000E+00  0.00000000E+00
  0.00000000E+00  0.00000000E+00  0.00000000E+00
  0.00000000E+00  0.00000000E+00  0.00000000E+00
  0.00000000E+00  0.00000000E+00  0.00000000E+00
  0.00000000E+00  0.00000000E+00  0.00000000E+00
