94-HfNbTaCrW                            
   1.00000000000000     
     8.9324998856000004    0.0000000000000000    0.0000000000000000
     0.0057529959000000    9.0555983388999994    0.0000000000000000
     0.0321018024000000   -0.0157434634000000    8.9371280720000001
   Nb   Ta   Hf   N    C    Cr   W 
     7     6     7    13    19     6     6
Direct
  0.9968800099999982  0.9920499660000033  0.9992400160000017
  0.2539800289999974  0.9971499549999976  0.2491199950000009
  0.2480300260000021  0.5016500039999983  0.2495500070000034
  0.5050100639999968  0.4974599789999985  0.9983400300000014
  0.5047900320000025  0.2463100109999985  0.7471000150000009
  0.9942799219999969  0.5044999910000030  0.4977899980000018
  0.4995000529999984  0.7548199909999980  0.7481700419999981
  0.9943700379999996  0.2361700129999988  0.2637999880000024
  0.7571799959999979  0.7410299750000036  0.0110000000000028
  0.0020099999999985  0.2554099999999977  0.7389400120000005
  0.7530700120000020  0.2616300110000012  0.5053300209999989
  0.9951400440000029  0.7449200360000034  0.7451199719999977
  0.2567999939999979  0.4946200219999994  0.7454500229999965
  0.2478899899999973  0.2483899960000002  0.9965799679999989
  0.5083300029999975  0.2567699929999989  0.2537600069999968
  0.7487900369999991  0.9878799939999965  0.2696700110000023
  0.7571899969999976  0.2560300080000033  0.9959199709999993
  0.2476200099999986  0.7497399940000022  0.9997400560000003
  0.2527200059999970  0.2482300069999965  0.5001500329999971
  0.2445799910000019  0.7504899859999981  0.4998399890000016
  0.2498200149999974  0.2494299809999987  0.2482499950000019
  0.2614699889999983  0.9998400200000006  0.9929599629999970
  0.0028099999999966  0.2502400030000018  0.0013000000000005
  0.7531399809999968  0.2461699950000025  0.2549200170000034
  0.7476700120000004  0.9974799960000027  0.0120199999999997
  0.5071499379999977  0.9997699950000012  0.2467300010000031
  0.9905199949999997  0.4808800249999976  0.2410099849999980
  0.5051900520000032  0.7613099909999974  0.0085499999999996
  0.9889698870000032  0.0020200000000017  0.7370899929999979
  0.7574499580000023  0.2443799739999974  0.7489699879999989
  0.7363200109999966  0.0041700000000020  0.5106300030000028
  0.5056399569999996  0.2326499850000019  0.4954499700000028
  0.5000899790000020  0.0006100000000018  0.7347199809999978
  0.9971999990000029  0.9977199209999981  0.2589999919999997
  0.5042799690000024  0.2467299959999991  0.0026200000000003
  0.2513399870000015  0.7495800160000030  0.2491099909999974
  0.2432800039999989  0.5007299729999986  0.9951099410000026
  0.9983700470000016  0.7431399620000008  0.0046000000000035
  0.7563299990000019  0.7389100279999994  0.2576699950000005
  0.7583900400000019  0.5031599759999992  0.0028799999999976
  0.5070000190000030  0.5033300170000032  0.2587899879999966
  0.2490099879999974  0.2531500019999982  0.7485400030000022
  0.2444600019999967  0.9982399599999994  0.5028799760000027
  0.9980400869999997  0.2422999939999997  0.5012800310000003
  0.2417700170000003  0.7534099709999964  0.7501800180000018
  0.2584100059999983  0.5006200170000028  0.5012900079999980
  0.9900000350000013  0.7621500260000005  0.4974599990000002
  0.9920399619999998  0.5005599930000031  0.7513800170000025
  0.7503600539999979  0.7488800010000034  0.7475600389999997
  0.7403600150000003  0.5019700029999967  0.5006700269999982
  0.5057500559999966  0.7495800189999997  0.4972000019999996
  0.5050100300000011  0.5021799849999979  0.7391200300000023
  0.5158899680000033  0.0135799990000010  0.9807500759999996
  0.9984199419999982  0.5097699829999982  0.9861300370000023
  0.5037900299999976  0.7392699660000019  0.2590500120000030
  0.2378000200000017  0.0108200000000025  0.7460799819999977
  0.4795799939999981  0.9830800049999979  0.4971799939999997
  0.7427900280000017  0.9786999370000018  0.7645099510000009
  0.9986499780000031  0.7757399919999983  0.2610199980000019
  0.7355100090000022  0.5146800369999980  0.2666600100000025
  0.0236199989999974  0.9978300100000013  0.4955700180000022
  0.5053899959999981  0.5283300520000012  0.4991799920000020
  0.7387600340000020  0.5282800250000008  0.7381499899999966
  0.7540000340000006  0.7293799879999980  0.4911699689999978
 
  0.00000000E+00  0.00000000E+00  0.00000000E+00
  0.00000000E+00  0.00000000E+00  0.00000000E+00
  0.00000000E+00  0.00000000E+00  0.00000000E+00
  0.00000000E+00  0.00000000E+00  0.00000000E+00
  0.00000000E+00  0.00000000E+00  0.00000000E+00
  0.00000000E+00  0.00000000E+00  0.00000000E+00
  0.00000000E+00  0.00000000E+00  0.00000000E+00
  0.00000000E+00  0.00000000E+00  0.00000000E+00
  0.00000000E+00  0.00000000E+00  0.00000000E+00
  0.00000000E+00  0.00000000E+00  0.00000000E+00
  0.00000000E+00  0.00000000E+00  0.00000000E+00
  0.00000000E+00  0.00000000E+00  0.00000000E+00
  0.00000000E+00  0.00000000E+00  0.00000000E+00
  0.00000000E+00  0.00000000E+00  0.00000000E+00
  0.00000000E+00  0.00000000E+00  0.00000000E+00
  0.00000000E+00  0.00000000E+00  0.00000000E+00
  0.00000000E+00  0.00000000E+00  0.00000000E+00
  0.00000000E+00  0.00000000E+00  0.00000000E+00
  0.00000000E+00  0.00000000E+00  0.00000000E+00
  0.00000000E+00  0.00000000E+00  0.00000000E+00
  0.00000000E+00  0.00000000E+00  0.00000000E+00
  0.00000000E+00  0.00000000E+00  0.00000000E+00
  0.00000000E+00  0.00000000E+00  0.00000000E+00
  0.00000000E+00  0.00000000E+00  0.00000000E+00
  0.00000000E+00  0.00000000E+00  0.00000000E+00
  0.00000000E+00  0.00000000E+00  0.00000000E+00
  0.00000000E+00  0.00000000E+00  0.00000000E+00
  0.00000000E+00  0.00000000E+00  0.00000000E+00
  0.00000000E+00  0.00000000E+00  0.00000000E+00
  0.00000000E+00  0.00000000E+00  0.00000000E+00
  0.00000000E+00  0.00000000E+00  0.00000000E+00
  0.00000000E+00  0.00000000E+00  0.00000000E+00
  0.00000000E+00  0.00000000E+00  0.00000000E+00
  0.00000000E+00  0.00000000E+00  0.00000000E+00
  0.00000000E+00  0.00000000E+00  0.00000000E+00
  0.00000000E+00  0.00000000E+00  0.00000000E+00
  0.00000000E+00  0.00000000E+00  0.00000000E+00
  0.00000000E+00  0.00000000E+00  0.00000000E+00
  0.00000000E+00  0.00000000E+00  0.00000000E+00
  0.00000000E+00  0.00000000E+00  0.00000000E+00
  0.00000000E+00  0.00000000E+00  0.00000000E+00
  0.00000000E+00  0.00000000E+00  0.00000000E+00
  0.00000000E+00  0.00000000E+00  0.00000000E+00
  0.00000000E+00  0.00000000E+00  0.00000000E+00
  0.00000000E+00  0.00000000E+00  0.00000000E+00
  0.00000000E+00  0.00000000E+00  0.00000000E+00
  0.00000000E+00  0.00000000E+00  0.00000000E+00
  0.00000000E+00  0.00000000E+00  0.00000000E+00
  0.00000000E+00  0.00000000E+00  0.00000000E+00
  0.00000000E+00  0.00000000E+00  0.00000000E+00
  0.00000000E+00  0.00000000E+00  0.00000000E+00
  0.00000000E+00  0.00000000E+00  0.00000000E+00
  0.00000000E+00  0.00000000E+00  0.00000000E+00
  0.00000000E+00  0.00000000E+00  0.00000000E+00
  0.00000000E+00  0.00000000E+00  0.00000000E+00
  0.00000000E+00  0.00000000E+00  0.00000000E+00
  0.00000000E+00  0.00000000E+00  0.00000000E+00
  0.00000000E+00  0.00000000E+00  0.00000000E+00
  0.00000000E+00  0.00000000E+00  0.00000000E+00
  0.00000000E+00  0.00000000E+00  0.00000000E+00
  0.00000000E+00  0.00000000E+00  0.00000000E+00
  0.00000000E+00  0.00000000E+00  0.00000000E+00
  0.00000000E+00  0.00000000E+00  0.00000000E+00
  0.00000000E+00  0.00000000E+00  0.00000000E+00
