SYSTEM=HEBCN
ISTART=1
ICHARG=11
PREC=Normal
LREAL=.F.
IBRION=-1
ISIF=2
NSW=0
POTIM=0.5
EDIFFG=-0.01
ENCUT=400
NELM=60
EDIFF=1E-5
LCHARG=.T.
LWAVE=.F.
ISMEAR=0
SIGMA=0.1
ALGO=Fast
NEDOS=1000
LORBIT=10
NBANDS=312
EMIN=-48
EMAX=12


