10-TiZrHfMoW                            
   1.00000000000000     
     8.9292170207052575    0.0050221465538346    0.0325556891406689
     0.0051029594338061    8.9715391860834828    0.0018286992265086
     0.0324194691796544    0.0017997097663669    8.9088974937330754
  Ti              Mo              Hf              N               C               Zr              W             
     7     6     6    13    19     7     6
Direct
  0.9958078115346121  0.9945366561612370  0.0022254596773261
  0.2408214631511293  0.9947531821526189  0.2512295766707453
  0.2606894384344077  0.5034382468995626  0.2491568881201755
  0.4989603878338431  0.5008681696578638  0.0012173571751456
  0.4887548125874187  0.2582053353605008  0.7501232789977110
  0.0079277522477692  0.4964108820299037  0.4949025905294655
  0.5042851184149939  0.7410097489053882  0.7471081334045659
  0.9920130806466891  0.2322539608012296  0.2674673741668915
  0.7621480441632856  0.7484162335153801  0.9829300897939836
  0.0227014547718238  0.2768416766104307  0.7509413062431499
  0.7638924351920622  0.2726140351929448  0.4781683272462985
  0.9883199669602524  0.7247940193111972  0.7535597634771805
  0.2628512339603408  0.4994144732160342  0.7512204788164457
  0.2450814991311414  0.2516925001436921  0.0011753178283776
  0.4992191310973509  0.2521293745648175  0.2496034543745898
  0.7549590349974783  0.9958566989615724  0.2517498542987330
  0.7531553120545446  0.2538335898306203  0.9904817416807399
  0.2455293328717560  0.7476182172382264  0.9996761403953962
  0.2472584661716895  0.2522635931171888  0.5012129493487157
  0.2479700554618798  0.2475761555956035  0.2527782871655690
  0.2460215632144582  0.0006883861984877  0.0065636217937346
  0.9996741652949385  0.2435193433124107  0.0079056393810349
  0.7501935117787197  0.2473631218249853  0.2413878098199343
  0.7562830142013884  0.0054018205548775  0.9978332691716043
  0.5020388445670131  0.0025690700796273  0.2463830636645970
  0.9988007632959839  0.4989021951422933  0.2619422369024085
  0.4969383621018173  0.7456534757380537  0.9914834005606570
  0.9987287306429379  0.0046991875830982  0.7489266444389641
  0.7485203840861666  0.2572584604617861  0.7465403507820267
  0.7531684468763503  0.0036580863576075  0.4928514140433432
  0.5024099052292443  0.2524984758768286  0.5026929049262457
  0.5031976340581594  0.0013620225795659  0.7490326819327783
  0.0036029965128270  0.9973104735427880  0.2443824212240596
  0.5013730874141596  0.2533749961457507  0.9963566220797411
  0.2437580564729670  0.7513753964090977  0.2486859239172258
  0.2540986653054283  0.4990591433863067  0.0060804319534063
  0.9973977237812768  0.7564494318030083  0.0032202928266842
  0.7572747354076985  0.7404306664714148  0.2496094175562136
  0.7431367012547700  0.5061049557784186  0.0073755445449455
  0.4971505021676897  0.4966119546219654  0.2508887678158060
  0.2574107998209899  0.2530500198014364  0.7508188599820916
  0.2434069664518022  0.0026246293045129  0.4922395707618861
  0.9934795871989028  0.2515832244242829  0.5131041626381571
  0.2486176240518538  0.7444727565264143  0.7527442722101166
  0.2515941287508746  0.4977559709764466  0.4977362734116705
  0.9913196023247002  0.7539025391848013  0.5026472508838233
  0.9982196442077644  0.4993746728134468  0.7474558631709078
  0.7439067172813969  0.7484665642370681  0.7407014152806172
  0.7548233221086812  0.4985879411833780  0.5070614474782018
  0.5054211272156184  0.7424770762517420  0.5058457200956703
  0.5032654516353569  0.5000670793361557  0.7516040452571204
  0.5019373420901504  0.9993092495316273  0.9944091430202122
  0.9981097675881042  0.5031443249106095  0.0119209035614975
  0.5024890338348298  0.7441712699257667  0.2485503682958025
  0.2409013722390188  0.9973428777312526  0.7501523632451556
  0.4956011685881710  0.9958990647758746  0.5016270084655020
  0.7599203900833337  0.0005372023798352  0.7385576038511901
  0.2443633277374698  0.7469987622570053  0.5025279120839907
  0.0016966387555199  0.7648858645857310  0.2556295296009156
  0.7345376162067341  0.4946921148839513  0.2523996136580949
  0.0074056703953508  0.0074601256007946  0.4876279222430946
  0.4912992422213721  0.5055209384597732  0.5018346444569018
  0.7374393362284022  0.5161454108496480  0.7686917109906535
  0.7567211696351378  0.7227135789341588  0.4970422386101085
 
  0.00000000E+00  0.00000000E+00  0.00000000E+00
  0.00000000E+00  0.00000000E+00  0.00000000E+00
  0.00000000E+00  0.00000000E+00  0.00000000E+00
  0.00000000E+00  0.00000000E+00  0.00000000E+00
  0.00000000E+00  0.00000000E+00  0.00000000E+00
  0.00000000E+00  0.00000000E+00  0.00000000E+00
  0.00000000E+00  0.00000000E+00  0.00000000E+00
  0.00000000E+00  0.00000000E+00  0.00000000E+00
  0.00000000E+00  0.00000000E+00  0.00000000E+00
  0.00000000E+00  0.00000000E+00  0.00000000E+00
  0.00000000E+00  0.00000000E+00  0.00000000E+00
  0.00000000E+00  0.00000000E+00  0.00000000E+00
  0.00000000E+00  0.00000000E+00  0.00000000E+00
  0.00000000E+00  0.00000000E+00  0.00000000E+00
  0.00000000E+00  0.00000000E+00  0.00000000E+00
  0.00000000E+00  0.00000000E+00  0.00000000E+00
  0.00000000E+00  0.00000000E+00  0.00000000E+00
  0.00000000E+00  0.00000000E+00  0.00000000E+00
  0.00000000E+00  0.00000000E+00  0.00000000E+00
  0.00000000E+00  0.00000000E+00  0.00000000E+00
  0.00000000E+00  0.00000000E+00  0.00000000E+00
  0.00000000E+00  0.00000000E+00  0.00000000E+00
  0.00000000E+00  0.00000000E+00  0.00000000E+00
  0.00000000E+00  0.00000000E+00  0.00000000E+00
  0.00000000E+00  0.00000000E+00  0.00000000E+00
  0.00000000E+00  0.00000000E+00  0.00000000E+00
  0.00000000E+00  0.00000000E+00  0.00000000E+00
  0.00000000E+00  0.00000000E+00  0.00000000E+00
  0.00000000E+00  0.00000000E+00  0.00000000E+00
  0.00000000E+00  0.00000000E+00  0.00000000E+00
  0.00000000E+00  0.00000000E+00  0.00000000E+00
  0.00000000E+00  0.00000000E+00  0.00000000E+00
  0.00000000E+00  0.00000000E+00  0.00000000E+00
  0.00000000E+00  0.00000000E+00  0.00000000E+00
  0.00000000E+00  0.00000000E+00  0.00000000E+00
  0.00000000E+00  0.00000000E+00  0.00000000E+00
  0.00000000E+00  0.00000000E+00  0.00000000E+00
  0.00000000E+00  0.00000000E+00  0.00000000E+00
  0.00000000E+00  0.00000000E+00  0.00000000E+00
  0.00000000E+00  0.00000000E+00  0.00000000E+00
  0.00000000E+00  0.00000000E+00  0.00000000E+00
  0.00000000E+00  0.00000000E+00  0.00000000E+00
  0.00000000E+00  0.00000000E+00  0.00000000E+00
  0.00000000E+00  0.00000000E+00  0.00000000E+00
  0.00000000E+00  0.00000000E+00  0.00000000E+00
  0.00000000E+00  0.00000000E+00  0.00000000E+00
  0.00000000E+00  0.00000000E+00  0.00000000E+00
  0.00000000E+00  0.00000000E+00  0.00000000E+00
  0.00000000E+00  0.00000000E+00  0.00000000E+00
  0.00000000E+00  0.00000000E+00  0.00000000E+00
  0.00000000E+00  0.00000000E+00  0.00000000E+00
  0.00000000E+00  0.00000000E+00  0.00000000E+00
  0.00000000E+00  0.00000000E+00  0.00000000E+00
  0.00000000E+00  0.00000000E+00  0.00000000E+00
  0.00000000E+00  0.00000000E+00  0.00000000E+00
  0.00000000E+00  0.00000000E+00  0.00000000E+00
  0.00000000E+00  0.00000000E+00  0.00000000E+00
  0.00000000E+00  0.00000000E+00  0.00000000E+00
  0.00000000E+00  0.00000000E+00  0.00000000E+00
  0.00000000E+00  0.00000000E+00  0.00000000E+00
  0.00000000E+00  0.00000000E+00  0.00000000E+00
  0.00000000E+00  0.00000000E+00  0.00000000E+00
  0.00000000E+00  0.00000000E+00  0.00000000E+00
  0.00000000E+00  0.00000000E+00  0.00000000E+00
