10-TiZrHfMoW                            
   1.00000000000000     
     8.9293813004477087    0.0052819044892924    0.0324183478161866
     0.0053641570011378    8.9715875154178661    0.0017801864358080
     0.0322854289315383    0.0017526877621138    8.9082635273051647
   Ti   Mo   Hf   N    C    Zr   W 
     7     6     6    13    19     7     6
Direct
  0.9958158656517085  0.9945309712941717  0.0022721187053714
  0.2408031025441263  0.9947364070881314  0.2512401096518321
  0.2607130588467018  0.5034485452814793  0.2491501449962933
  0.4989482533518891  0.5008615716157260  0.0012284315856348
  0.4887332976437921  0.2582153767567094  0.7501388020759032
  0.0079574337811636  0.4964274736037000  0.4948734421267527
  0.5042807757779590  0.7410038724897798  0.7470910266860796
  0.9919761513436393  0.2322663293615397  0.2674825969750318
  0.7621610313311554  0.7483850174168928  0.9829221168076586
  0.0227100609847766  0.2767918353961151  0.7509538621543602
  0.7639362590631332  0.2726212035378632  0.4781374579042846
  0.9883247827575473  0.7247603817778576  0.7535767487439914
  0.2628481631525580  0.4994221682460335  0.7512317828066210
  0.2450803800441475  0.2516953222323301  0.0011617908598264
  0.4992412260544181  0.2521352810556365  0.2496130646174333
  0.7549575592362273  0.9958607293071841  0.2517662039287523
  0.7531467538199367  0.2538328502208972  0.9904585986658215
  0.2455405861616187  0.7476215419323923  0.9996728084683976
  0.2472778022704641  0.2522580365207160  0.5012245450739806
  0.2479606082662060  0.2475765199088026  0.2527827528548025
  0.2460431926513348  0.0007015813700466  0.0065585311567801
 -0.0003273639114572  0.2435247890827368  0.0079142020825454
  0.7501673561887892  0.2473419727089647  0.2414382224808330
  0.7562844395816298  0.0053941187687653  0.9978368761300681
  0.5020410748483194  0.0025731001534755  0.2463727182280761
  0.9987885451765010  0.4989077399822686  0.2619421362406735
  0.4969410171110270  0.7456583931119984  0.9914823167864235
  0.9987196758992520  0.0046969777192297  0.7488961821936628
  0.7484996736609028  0.2572490813701514  0.7465527089365569
  0.7531656415894036  0.0036274686415373  0.4928662659249177
  0.5024109227538412  0.2524830083366119  0.5026906044704286
  0.5031873290663001  0.0013742633329248  0.7490357697761179
  0.0036146217818645  0.9973043765410498  0.2443931156794858
  0.5013597220154854  0.2533725857917769  0.9963587924514390
  0.2437488577902788  0.7513836541729312  0.2486716065860484
  0.2540985725544003  0.4990727786084552  0.0060695021802150
  0.9973915141087495  0.7564606816045907  0.0032224222151702
  0.7572703113845594  0.7404211494314651  0.2496193052166001
  0.7431357275336167  0.5061173957046603  0.0073412395224715
  0.4971561307026306  0.4966126278347682  0.2508789008420754
  0.2573744271470803  0.2530572058246223  0.7508178681201549
  0.2433873548583142  0.0026280107709522  0.4922305635501477
  0.9934998035989802  0.2515886076579582  0.5130869104292133
  0.2486188217330789  0.7444763253111357  0.7527564753808421
  0.2516145391265881  0.4977496330224804  0.4977361314482910
  0.9913252847360752  0.7539099806930551  0.5026721055941519
  0.9981920467721099  0.4994600132495439  0.7474583693941876
  0.7439114167457156  0.7484769681269782  0.7407026938768630
  0.7548446816113952  0.4985987289995538  0.5070653830760748
  0.5054316378116119  0.7424676733243264  0.5058437025333862
  0.5032443733312912  0.5000687575085286  0.7516043166375868
  0.5019258587460832  0.9993207057973962  0.9944015044520087
  0.9981129614963300  0.5031139652344785  0.0119432124092688
  0.5024809289127569  0.7441357792549890  0.2485397080746892
  0.2408684927528049  0.9973536167666037  0.7501502277665382
  0.4956279664907455  0.9958998801375720  0.5016151428774159
  0.7599337066568753  0.0005220146141967  0.7385621940287446
  0.2443681370780150  0.7470131960675792  0.5025365426212014
  0.0017086985646867  0.7648674332645208  0.2556193547078447
  0.7345553876177879  0.4946771678152719  0.2524021106718639
  0.0074011407863810  0.0074807417019487  0.4875862374392392
  0.4913075097356873  0.5055467678693106  0.5018122153160369
  0.7374046911693547  0.5161489113994507  0.7687006266829943
  0.7567506899496663  0.7227094082752643  0.4970372501218418
 
  0.00000000E+00  0.00000000E+00  0.00000000E+00
  0.00000000E+00  0.00000000E+00  0.00000000E+00
  0.00000000E+00  0.00000000E+00  0.00000000E+00
  0.00000000E+00  0.00000000E+00  0.00000000E+00
  0.00000000E+00  0.00000000E+00  0.00000000E+00
  0.00000000E+00  0.00000000E+00  0.00000000E+00
  0.00000000E+00  0.00000000E+00  0.00000000E+00
  0.00000000E+00  0.00000000E+00  0.00000000E+00
  0.00000000E+00  0.00000000E+00  0.00000000E+00
  0.00000000E+00  0.00000000E+00  0.00000000E+00
  0.00000000E+00  0.00000000E+00  0.00000000E+00
  0.00000000E+00  0.00000000E+00  0.00000000E+00
  0.00000000E+00  0.00000000E+00  0.00000000E+00
  0.00000000E+00  0.00000000E+00  0.00000000E+00
  0.00000000E+00  0.00000000E+00  0.00000000E+00
  0.00000000E+00  0.00000000E+00  0.00000000E+00
  0.00000000E+00  0.00000000E+00  0.00000000E+00
  0.00000000E+00  0.00000000E+00  0.00000000E+00
  0.00000000E+00  0.00000000E+00  0.00000000E+00
  0.00000000E+00  0.00000000E+00  0.00000000E+00
  0.00000000E+00  0.00000000E+00  0.00000000E+00
  0.00000000E+00  0.00000000E+00  0.00000000E+00
  0.00000000E+00  0.00000000E+00  0.00000000E+00
  0.00000000E+00  0.00000000E+00  0.00000000E+00
  0.00000000E+00  0.00000000E+00  0.00000000E+00
  0.00000000E+00  0.00000000E+00  0.00000000E+00
  0.00000000E+00  0.00000000E+00  0.00000000E+00
  0.00000000E+00  0.00000000E+00  0.00000000E+00
  0.00000000E+00  0.00000000E+00  0.00000000E+00
  0.00000000E+00  0.00000000E+00  0.00000000E+00
  0.00000000E+00  0.00000000E+00  0.00000000E+00
  0.00000000E+00  0.00000000E+00  0.00000000E+00
  0.00000000E+00  0.00000000E+00  0.00000000E+00
  0.00000000E+00  0.00000000E+00  0.00000000E+00
  0.00000000E+00  0.00000000E+00  0.00000000E+00
  0.00000000E+00  0.00000000E+00  0.00000000E+00
  0.00000000E+00  0.00000000E+00  0.00000000E+00
  0.00000000E+00  0.00000000E+00  0.00000000E+00
  0.00000000E+00  0.00000000E+00  0.00000000E+00
  0.00000000E+00  0.00000000E+00  0.00000000E+00
  0.00000000E+00  0.00000000E+00  0.00000000E+00
  0.00000000E+00  0.00000000E+00  0.00000000E+00
  0.00000000E+00  0.00000000E+00  0.00000000E+00
  0.00000000E+00  0.00000000E+00  0.00000000E+00
  0.00000000E+00  0.00000000E+00  0.00000000E+00
  0.00000000E+00  0.00000000E+00  0.00000000E+00
  0.00000000E+00  0.00000000E+00  0.00000000E+00
  0.00000000E+00  0.00000000E+00  0.00000000E+00
  0.00000000E+00  0.00000000E+00  0.00000000E+00
  0.00000000E+00  0.00000000E+00  0.00000000E+00
  0.00000000E+00  0.00000000E+00  0.00000000E+00
  0.00000000E+00  0.00000000E+00  0.00000000E+00
  0.00000000E+00  0.00000000E+00  0.00000000E+00
  0.00000000E+00  0.00000000E+00  0.00000000E+00
  0.00000000E+00  0.00000000E+00  0.00000000E+00
  0.00000000E+00  0.00000000E+00  0.00000000E+00
  0.00000000E+00  0.00000000E+00  0.00000000E+00
  0.00000000E+00  0.00000000E+00  0.00000000E+00
  0.00000000E+00  0.00000000E+00  0.00000000E+00
  0.00000000E+00  0.00000000E+00  0.00000000E+00
  0.00000000E+00  0.00000000E+00  0.00000000E+00
  0.00000000E+00  0.00000000E+00  0.00000000E+00
  0.00000000E+00  0.00000000E+00  0.00000000E+00
  0.00000000E+00  0.00000000E+00  0.00000000E+00
