25-TiHfVTaW                             
   1.00000000000000     
     8.7793205117519850    0.0005344566259114    0.0181396012630712
     0.0005223260574109    8.8745209678547727   -0.0041210276909034
     0.0181424828667854   -0.0039902597499317    8.7771649532273557
   Ti   Ta   Hf   N    C    W    V 
     7     6     7    13    19     6     6
Direct
 -0.0016517447644493 -0.0145720716968758  0.0098502812205899
  0.2457364582100317 -0.0072813063722985  0.2532702019692806
  0.2543911836948227  0.5080000768875150  0.2495082280986881
  0.5027334135525532  0.4902733219983340 -0.0049206580981536
  0.4953623768646222  0.2490882274231166  0.7520907674014861
 -0.0035333174420921  0.5043514847444466  0.5000594753170198
  0.5030597832718767  0.7465609846708618  0.7407809626859766
 -0.0007972990839664  0.2428082493502785  0.2586609915314889
  0.7511011553344914  0.7440789796537163  0.0075962770468236
  0.0049631750504702  0.2549049587996979  0.7422495818138843
  0.7511505242021893  0.2659282004010505  0.5075882398039457
 -0.0055229226542519  0.7468863169950752  0.7458062325201251
  0.2574327284670592  0.4981273800186741  0.7474275530214750
  0.2470451214766572  0.2468474033266361 -0.0004399659148397
  0.5017487209875731  0.2556612002980898  0.2503727726739933
  0.7513314436042823 -0.0095957289507389  0.2637643012559460
  0.7547445995395093  0.2542882628808881 -0.0064953952040673
  0.2564792623771059  0.7538435851358775 -0.0001962458054043
  0.2518694546472062  0.2502980860740912  0.4984808247959481
  0.2450619012711319  0.7487066953226283  0.4991279440753013
  0.2493188557397088  0.2501790912608104  0.2483974901331077
  0.2554496318508006  0.0006255475988967  0.0005993644540511
  0.0013583226394927  0.2445811812762066  0.0008872608552286
  0.7518777514317057  0.2498430987272688  0.2540921801673057
  0.7570994190338900 -0.0018206830669578  0.0101955754838766
  0.4980482923832646 -0.0019044510120175  0.2452070751457950
 -0.0006170532344017  0.4906468219393736  0.2459345531876155
  0.5059674975041305  0.7564651510598404  0.0011681456041677
 -0.0096028003433257  0.0024526202489868  0.7479852147451176
  0.7487217180060574  0.2467499314160223  0.7474454845881870
  0.7394375718648785  0.0041415903131843  0.5106228226307246
  0.5056319390051066  0.2423876501618985  0.5026183266005397
  0.4974887305094727 -0.0009980499638897  0.7405046203321179
  0.0031860930447417 -0.0024661895939741  0.2525439478422304
  0.5022461497463740  0.2545263747995736 -0.0042826172594239
  0.2514119600826232  0.7492065255619648  0.2493384642745990
  0.2494459668275102  0.5017973443931940  0.0025345096868135
  0.0001865365527059  0.7503178961213555  0.0042371859765150
  0.7560174996826947  0.7387061735340715  0.2565688944588985
  0.7511224533588968  0.5032025284909690  0.0019854063506349
  0.5006813029726798  0.5040068214615232  0.2514147815033169
  0.2547122918086655  0.2521579691515566  0.7492702754330810
  0.2422805077117718 -0.0016167089715002  0.4949675991698756
 -0.0031579847819117  0.2480290814098285  0.5001325185907967
  0.2508591404819993  0.7525759306219851  0.7494449785032865
  0.2530442367583237  0.5002564054223193  0.4947686041221239
 -0.0097978165673726  0.7542777631928048  0.4961270626066038
 -0.0059708146431689  0.5009911125042121  0.7470276719258393
  0.7444834111066171  0.7474879009127093  0.7461000611743287
  0.7495799915946131  0.5042581827681213  0.4999653497687648
  0.5070798261497576  0.7474654897076792  0.5033743762023003
  0.5056058927376307  0.5008556053369402  0.7457809851997304
  0.5142130326873258  0.0158101543474955 -0.0153148375176741
  0.0003614973695718  0.5131476546216882 -0.0088848708360281
  0.5032681354059518  0.7392810756954291  0.2627401521169189
  0.2435161067265391  0.0056766507228283  0.7417655364009533
  0.4794092870165305 -0.0147382848744665  0.5008768472518430
  0.7401700949629422 -0.0203229241413832  0.7649426725874221
  0.0010342283096308  0.7674076901233409  0.2560764493608343
  0.7333527136744473  0.5104030887985640  0.2609853501431489
  0.0182872073255749 -0.0033477198690111  0.4884991841179142
  0.5069625693590945  0.5184090582944818  0.5010086311358628
  0.7399128723640223  0.5224090892095877  0.7436118912403282
  0.7536103871756685  0.7272751253254792  0.4921531263308757
 
  0.00000000E+00  0.00000000E+00  0.00000000E+00
  0.00000000E+00  0.00000000E+00  0.00000000E+00
  0.00000000E+00  0.00000000E+00  0.00000000E+00
  0.00000000E+00  0.00000000E+00  0.00000000E+00
  0.00000000E+00  0.00000000E+00  0.00000000E+00
  0.00000000E+00  0.00000000E+00  0.00000000E+00
  0.00000000E+00  0.00000000E+00  0.00000000E+00
  0.00000000E+00  0.00000000E+00  0.00000000E+00
  0.00000000E+00  0.00000000E+00  0.00000000E+00
  0.00000000E+00  0.00000000E+00  0.00000000E+00
  0.00000000E+00  0.00000000E+00  0.00000000E+00
  0.00000000E+00  0.00000000E+00  0.00000000E+00
  0.00000000E+00  0.00000000E+00  0.00000000E+00
  0.00000000E+00  0.00000000E+00  0.00000000E+00
  0.00000000E+00  0.00000000E+00  0.00000000E+00
  0.00000000E+00  0.00000000E+00  0.00000000E+00
  0.00000000E+00  0.00000000E+00  0.00000000E+00
  0.00000000E+00  0.00000000E+00  0.00000000E+00
  0.00000000E+00  0.00000000E+00  0.00000000E+00
  0.00000000E+00  0.00000000E+00  0.00000000E+00
  0.00000000E+00  0.00000000E+00  0.00000000E+00
  0.00000000E+00  0.00000000E+00  0.00000000E+00
  0.00000000E+00  0.00000000E+00  0.00000000E+00
  0.00000000E+00  0.00000000E+00  0.00000000E+00
  0.00000000E+00  0.00000000E+00  0.00000000E+00
  0.00000000E+00  0.00000000E+00  0.00000000E+00
  0.00000000E+00  0.00000000E+00  0.00000000E+00
  0.00000000E+00  0.00000000E+00  0.00000000E+00
  0.00000000E+00  0.00000000E+00  0.00000000E+00
  0.00000000E+00  0.00000000E+00  0.00000000E+00
  0.00000000E+00  0.00000000E+00  0.00000000E+00
  0.00000000E+00  0.00000000E+00  0.00000000E+00
  0.00000000E+00  0.00000000E+00  0.00000000E+00
  0.00000000E+00  0.00000000E+00  0.00000000E+00
  0.00000000E+00  0.00000000E+00  0.00000000E+00
  0.00000000E+00  0.00000000E+00  0.00000000E+00
  0.00000000E+00  0.00000000E+00  0.00000000E+00
  0.00000000E+00  0.00000000E+00  0.00000000E+00
  0.00000000E+00  0.00000000E+00  0.00000000E+00
  0.00000000E+00  0.00000000E+00  0.00000000E+00
  0.00000000E+00  0.00000000E+00  0.00000000E+00
  0.00000000E+00  0.00000000E+00  0.00000000E+00
  0.00000000E+00  0.00000000E+00  0.00000000E+00
  0.00000000E+00  0.00000000E+00  0.00000000E+00
  0.00000000E+00  0.00000000E+00  0.00000000E+00
  0.00000000E+00  0.00000000E+00  0.00000000E+00
  0.00000000E+00  0.00000000E+00  0.00000000E+00
  0.00000000E+00  0.00000000E+00  0.00000000E+00
  0.00000000E+00  0.00000000E+00  0.00000000E+00
  0.00000000E+00  0.00000000E+00  0.00000000E+00
  0.00000000E+00  0.00000000E+00  0.00000000E+00
  0.00000000E+00  0.00000000E+00  0.00000000E+00
  0.00000000E+00  0.00000000E+00  0.00000000E+00
  0.00000000E+00  0.00000000E+00  0.00000000E+00
  0.00000000E+00  0.00000000E+00  0.00000000E+00
  0.00000000E+00  0.00000000E+00  0.00000000E+00
  0.00000000E+00  0.00000000E+00  0.00000000E+00
  0.00000000E+00  0.00000000E+00  0.00000000E+00
  0.00000000E+00  0.00000000E+00  0.00000000E+00
  0.00000000E+00  0.00000000E+00  0.00000000E+00
  0.00000000E+00  0.00000000E+00  0.00000000E+00
  0.00000000E+00  0.00000000E+00  0.00000000E+00
  0.00000000E+00  0.00000000E+00  0.00000000E+00
  0.00000000E+00  0.00000000E+00  0.00000000E+00
