33-TiVNbMoW                             
   1.00000000000000     
     8.6886099921390141    0.0012088521787012    0.0297436367302196
     0.0012937215590533    8.6720140364311131    0.0160269827230312
     0.0295759831697133    0.0158856872946827    8.6867479085555814
   Ti   Mo   V    N    C    Nb   W 
     7     6     7    13    19     6     6
Direct
  0.0029710017642047  0.0100668527933963  0.0028366137830729
  0.2467062691795924  0.0094987361758919  0.2500439366593170
  0.2534930497085248  0.4896851038547486  0.2521942386125050
  0.4976787767177897  0.5004878687340955  0.0007730133824386
  0.5002869716961866  0.2516145189500156  0.7531544290676581
  0.0095031421803842  0.4995209501662484  0.5010286290883829
  0.4949547123997476  0.7494202615134623  0.7487820002532360
 -0.0107548046988888  0.2366392146755247  0.2632012644843852
  0.7727518636127567  0.7489159657365884 -0.0031487465437315
  0.0228941584082426  0.2632978703793528  0.7524649966851003
  0.7647409835983056  0.2652213482596088  0.4767569861555462
  0.0005780437050388  0.7373439040787333  0.7516379841077399
  0.2563138539143655  0.5000613682427432  0.7501713091692895
  0.2653312488741525  0.2616844620694256 -0.0119375336894682
  0.5005693412503913  0.2556701759957756  0.2304086001118040
  0.7496179589556107 -0.0130677774823358  0.2219178196057659
  0.7262697469229539  0.2526446460718698  0.0024242527084036
  0.2368759507033213  0.7330689652438216  0.0063914414367129
  0.2444084116883605  0.2467422022378290  0.5149847253517873
  0.2530653486464356  0.7540849119121986  0.4925972843119075
  0.2501091632118320  0.2492000179558838  0.2507355253900829
  0.2489617732201526  0.0063907538624105  0.0025588903314196
 -0.0034710456861398  0.2468217963130754  0.0070066616846849
  0.7383768933991961  0.2339311328443028  0.2400087358821383
  0.7563738050862460  0.0064583594046659  0.0008964686701783
  0.4998259175476870  0.0058185693256560  0.2504729903127246
  0.0004893920979911  0.5005950141664959  0.2548499362507766
  0.4909575202735971  0.7509165999250688 -0.0034200852673850
 -0.0025677683535541  0.0025934594667899  0.7522718270605699
  0.7474521895744776  0.2489041791962981  0.7530911422180837
  0.7518674592671483 -0.0005897546599635  0.5024698259837410
  0.4997195986303180  0.2505580231418422  0.5000941745464685
  0.5003539482950615  0.0013387296128882  0.7489745473519038
 -0.0066557918530220  0.0002124776421098  0.2494188850819551
  0.4951794594360880  0.2575608993448534 -0.0031380901573333
  0.2478357893718225  0.7498800905565294  0.2483634776062339
  0.2506496854322781  0.4984350790009619  0.0040528322067825
  0.0097256322508246  0.7525142848619227  0.0036458458349039
  0.7522143402035311  0.7470116776517490  0.2490210133737950
  0.7448696193820248  0.4956741348840169  0.0053593389304973
  0.4950406355510910  0.4916894633668805  0.2495337615446099
  0.2602965392342227  0.2503961202821909  0.7515467108868455
  0.2499741476576959  0.0020718157988286  0.4929548178224073
  0.0050339598472881  0.2529584788520381  0.5092464081437749
  0.2500489140487059  0.7483606397122478  0.7527459144197756
  0.2513510530120694  0.4987695975929161  0.4982821961953453
  0.0035819232327219  0.7514375426387253  0.5020535295286179
 -0.0019908178474193  0.4986470615924758  0.7475162560966249
  0.7439343062881209  0.7485521355738107  0.7477476616741895
  0.7545673454440854  0.4988917461516438  0.5038069398918188
  0.4958777674973005  0.7494956523941477  0.5042200040060342
  0.5014621867354978  0.5010074756479140  0.7506164394217937
  0.5001302609536665  0.0067706550887629  0.0036842764283165
 -0.0012543478008180  0.4954335585578251  0.0001539067686388
  0.4947263892277809  0.7448638853145564  0.2520487328247563
  0.2467700367966034 -0.0031870015046497  0.7451727308670669
  0.4910244039087027 -0.0026077824552048  0.4950784349037086
  0.7521261818567784 -0.0056817714978367  0.7596959382272537
  0.0065566866808831  0.7656873410645134  0.2550153841065457
  0.7389472694673721  0.4924855845706403  0.2491168106348997
  0.0139628496731540  0.0048986481094721  0.4958265345363159
  0.4936077831162671  0.5075764702661302  0.5002077138710932
  0.7429305757605803  0.5083432077679864  0.7643079026441095
  0.7507710116426675  0.7363130730074905  0.4960044785214373
 
  0.00000000E+00  0.00000000E+00  0.00000000E+00
  0.00000000E+00  0.00000000E+00  0.00000000E+00
  0.00000000E+00  0.00000000E+00  0.00000000E+00
  0.00000000E+00  0.00000000E+00  0.00000000E+00
  0.00000000E+00  0.00000000E+00  0.00000000E+00
  0.00000000E+00  0.00000000E+00  0.00000000E+00
  0.00000000E+00  0.00000000E+00  0.00000000E+00
  0.00000000E+00  0.00000000E+00  0.00000000E+00
  0.00000000E+00  0.00000000E+00  0.00000000E+00
  0.00000000E+00  0.00000000E+00  0.00000000E+00
  0.00000000E+00  0.00000000E+00  0.00000000E+00
  0.00000000E+00  0.00000000E+00  0.00000000E+00
  0.00000000E+00  0.00000000E+00  0.00000000E+00
  0.00000000E+00  0.00000000E+00  0.00000000E+00
  0.00000000E+00  0.00000000E+00  0.00000000E+00
  0.00000000E+00  0.00000000E+00  0.00000000E+00
  0.00000000E+00  0.00000000E+00  0.00000000E+00
  0.00000000E+00  0.00000000E+00  0.00000000E+00
  0.00000000E+00  0.00000000E+00  0.00000000E+00
  0.00000000E+00  0.00000000E+00  0.00000000E+00
  0.00000000E+00  0.00000000E+00  0.00000000E+00
  0.00000000E+00  0.00000000E+00  0.00000000E+00
  0.00000000E+00  0.00000000E+00  0.00000000E+00
  0.00000000E+00  0.00000000E+00  0.00000000E+00
  0.00000000E+00  0.00000000E+00  0.00000000E+00
  0.00000000E+00  0.00000000E+00  0.00000000E+00
  0.00000000E+00  0.00000000E+00  0.00000000E+00
  0.00000000E+00  0.00000000E+00  0.00000000E+00
  0.00000000E+00  0.00000000E+00  0.00000000E+00
  0.00000000E+00  0.00000000E+00  0.00000000E+00
  0.00000000E+00  0.00000000E+00  0.00000000E+00
  0.00000000E+00  0.00000000E+00  0.00000000E+00
  0.00000000E+00  0.00000000E+00  0.00000000E+00
  0.00000000E+00  0.00000000E+00  0.00000000E+00
  0.00000000E+00  0.00000000E+00  0.00000000E+00
  0.00000000E+00  0.00000000E+00  0.00000000E+00
  0.00000000E+00  0.00000000E+00  0.00000000E+00
  0.00000000E+00  0.00000000E+00  0.00000000E+00
  0.00000000E+00  0.00000000E+00  0.00000000E+00
  0.00000000E+00  0.00000000E+00  0.00000000E+00
  0.00000000E+00  0.00000000E+00  0.00000000E+00
  0.00000000E+00  0.00000000E+00  0.00000000E+00
  0.00000000E+00  0.00000000E+00  0.00000000E+00
  0.00000000E+00  0.00000000E+00  0.00000000E+00
  0.00000000E+00  0.00000000E+00  0.00000000E+00
  0.00000000E+00  0.00000000E+00  0.00000000E+00
  0.00000000E+00  0.00000000E+00  0.00000000E+00
  0.00000000E+00  0.00000000E+00  0.00000000E+00
  0.00000000E+00  0.00000000E+00  0.00000000E+00
  0.00000000E+00  0.00000000E+00  0.00000000E+00
  0.00000000E+00  0.00000000E+00  0.00000000E+00
  0.00000000E+00  0.00000000E+00  0.00000000E+00
  0.00000000E+00  0.00000000E+00  0.00000000E+00
  0.00000000E+00  0.00000000E+00  0.00000000E+00
  0.00000000E+00  0.00000000E+00  0.00000000E+00
  0.00000000E+00  0.00000000E+00  0.00000000E+00
  0.00000000E+00  0.00000000E+00  0.00000000E+00
  0.00000000E+00  0.00000000E+00  0.00000000E+00
  0.00000000E+00  0.00000000E+00  0.00000000E+00
  0.00000000E+00  0.00000000E+00  0.00000000E+00
  0.00000000E+00  0.00000000E+00  0.00000000E+00
  0.00000000E+00  0.00000000E+00  0.00000000E+00
  0.00000000E+00  0.00000000E+00  0.00000000E+00
  0.00000000E+00  0.00000000E+00  0.00000000E+00
