95-VNbTaCrMo                            
   1.00000000000000     
     8.6581697843631460    0.0099512702418233    0.0036049920602763
     0.0157868294851780    8.6289480063352269    0.0122820441550765
     0.0346798096586510   -0.0026739217471082    8.6987934666730418
   Nb   Ta   V    N    C    Cr   Mo
     7     6     7    13    19     6     6
Direct
  0.0137803312870095  0.9952807101883906  0.9970507443309552
  0.2601861777054648  0.9974433719503945  0.2419764297790112
  0.2559357561925634  0.4988123549112449  0.2510172358479792
  0.5023918168737239  0.4928556096425971  0.0010538607098512
  0.5009614159834916  0.2414581561587414  0.7557667196930544
 -0.0008935665447736  0.5011489821697700  0.5083199814119455
  0.4992941356953083  0.7601909633981820  0.7419872631775992
  0.9899339739311667  0.2451056952692078  0.2455710970605954
  0.7511765053607165  0.7523609055659681  0.0022947365711234
  0.0046916527769405  0.2462193290914752  0.7522156295032031
  0.7491421010166374  0.2459201024012235  0.5026670349537606
  0.0038980479076383  0.7568587615980901  0.7473144084069967
  0.2536720415020740  0.5028293916465050  0.7484685500378074
  0.2591689853647772  0.2557577460588729  0.9856249214223739
  0.5178079700666234  0.2307310366258458  0.2590229963807950
  0.7320514376726512  0.9873663670368613  0.2711189712095593
  0.7344557896976788  0.2380916027558238  0.9893463334739709
  0.2407238235054018  0.7394008406228773  0.0076734106882922
  0.2466583544286678  0.2504283905055888  0.5138325777101321
  0.2544748283209719  0.7451665074733004  0.4911478102526490
  0.2474879322080567  0.2468349880059546  0.2459109896770150
  0.2674355083016916  0.9976598112104330  0.9961499403691423
 -0.0004810854944762  0.2519400326147118  0.0003218270527249
  0.7456744572427667  0.2385357084030006  0.2482465507999141
  0.7499908942795543  0.0025084601652824  0.0064675241712054
  0.5055462310868902 -0.0083022603295245  0.2434813344469872
  0.0011873579472098  0.4934371291258022  0.2511141138641001
  0.5004052837975032  0.7550995742427462 -0.0019683629839368
  0.9940100865766727  0.0030047680307660  0.7438878831604570
  0.7536895590742875  0.2361082097098816  0.7512974043851205
  0.7418625402184633  0.0029965719061802  0.4957362141204972
  0.4962353702024976  0.2491279527825584  0.4936702441545535
  0.4935733690151023  0.0018596323983541  0.7472661201672763
  0.9932359649257295  0.0010422325176341  0.2456480103666212
  0.4971899203298222  0.2413661942427830  0.0095403413064637
  0.2641301827457808  0.7476146171272570  0.2470615909812708
  0.2432060117513617  0.4979385202995023  0.9989430865157586
  0.0042246712626402  0.7432178305288178  0.0014584118113560
  0.7462491036323505  0.7542783095422085  0.2508693952922788
  0.7627852554893729  0.4897785745730722  0.0090429350729132
  0.4982573858330789  0.4957338341135499  0.2495160395375863
  0.2518392847081392  0.2426786759501820  0.7495372228551398
  0.2582468145910895  0.0017601280998944  0.5049995692762675
  0.0035651007539311  0.2496745398488012  0.4983817428234047
  0.2501097726227139  0.7599863960191130  0.7494420803377857
  0.2527527404222997  0.4980489702738146  0.4996843624814741
  0.0051441744883778  0.7543868875578599  0.4970474714350964
  0.0006239981155701  0.5024209829753356  0.7526491423582885
  0.7512058357787367  0.7640234960501185  0.7477112784241351
  0.7482603835835793  0.4961569797333318  0.5045108618056912
  0.4958603873906747  0.7702311079301132  0.4929263416250409
  0.5018585369032391  0.5016801457189893  0.7473599006994585
  0.5191568304913639  0.0155401834406611  0.9822189259860309
 -0.0005265647292279  0.5166625476935098  0.9735663629035549
  0.4998277886733415  0.7382111877108646  0.2762105193400247
  0.2316465162716627  0.0012225823555402  0.7759289416580553
  0.4738272585060081  0.0181124834853186  0.4756923920554679
  0.7191633603267809  0.9933077746989639  0.7829413911004490
  0.0113998011178106  0.7646392539355502  0.2507885766657119
  0.7316340143407910  0.5155709875132849  0.2513505228453329
  0.0247492258816493  0.0023686576494826  0.4866522216537489
  0.5006276873350120  0.5173111232812515  0.4930422546894789
  0.7486129801967631  0.5091465864309948  0.7627909805685283
  0.7450068690585873  0.7416505563650987  0.4974347655208896
 
  0.00000000E+00  0.00000000E+00  0.00000000E+00
  0.00000000E+00  0.00000000E+00  0.00000000E+00
  0.00000000E+00  0.00000000E+00  0.00000000E+00
  0.00000000E+00  0.00000000E+00  0.00000000E+00
  0.00000000E+00  0.00000000E+00  0.00000000E+00
  0.00000000E+00  0.00000000E+00  0.00000000E+00
  0.00000000E+00  0.00000000E+00  0.00000000E+00
  0.00000000E+00  0.00000000E+00  0.00000000E+00
  0.00000000E+00  0.00000000E+00  0.00000000E+00
  0.00000000E+00  0.00000000E+00  0.00000000E+00
  0.00000000E+00  0.00000000E+00  0.00000000E+00
  0.00000000E+00  0.00000000E+00  0.00000000E+00
  0.00000000E+00  0.00000000E+00  0.00000000E+00
  0.00000000E+00  0.00000000E+00  0.00000000E+00
  0.00000000E+00  0.00000000E+00  0.00000000E+00
  0.00000000E+00  0.00000000E+00  0.00000000E+00
  0.00000000E+00  0.00000000E+00  0.00000000E+00
  0.00000000E+00  0.00000000E+00  0.00000000E+00
  0.00000000E+00  0.00000000E+00  0.00000000E+00
  0.00000000E+00  0.00000000E+00  0.00000000E+00
  0.00000000E+00  0.00000000E+00  0.00000000E+00
  0.00000000E+00  0.00000000E+00  0.00000000E+00
  0.00000000E+00  0.00000000E+00  0.00000000E+00
  0.00000000E+00  0.00000000E+00  0.00000000E+00
  0.00000000E+00  0.00000000E+00  0.00000000E+00
  0.00000000E+00  0.00000000E+00  0.00000000E+00
  0.00000000E+00  0.00000000E+00  0.00000000E+00
  0.00000000E+00  0.00000000E+00  0.00000000E+00
  0.00000000E+00  0.00000000E+00  0.00000000E+00
  0.00000000E+00  0.00000000E+00  0.00000000E+00
  0.00000000E+00  0.00000000E+00  0.00000000E+00
  0.00000000E+00  0.00000000E+00  0.00000000E+00
  0.00000000E+00  0.00000000E+00  0.00000000E+00
  0.00000000E+00  0.00000000E+00  0.00000000E+00
  0.00000000E+00  0.00000000E+00  0.00000000E+00
  0.00000000E+00  0.00000000E+00  0.00000000E+00
  0.00000000E+00  0.00000000E+00  0.00000000E+00
  0.00000000E+00  0.00000000E+00  0.00000000E+00
  0.00000000E+00  0.00000000E+00  0.00000000E+00
  0.00000000E+00  0.00000000E+00  0.00000000E+00
  0.00000000E+00  0.00000000E+00  0.00000000E+00
  0.00000000E+00  0.00000000E+00  0.00000000E+00
  0.00000000E+00  0.00000000E+00  0.00000000E+00
  0.00000000E+00  0.00000000E+00  0.00000000E+00
  0.00000000E+00  0.00000000E+00  0.00000000E+00
  0.00000000E+00  0.00000000E+00  0.00000000E+00
  0.00000000E+00  0.00000000E+00  0.00000000E+00
  0.00000000E+00  0.00000000E+00  0.00000000E+00
  0.00000000E+00  0.00000000E+00  0.00000000E+00
  0.00000000E+00  0.00000000E+00  0.00000000E+00
  0.00000000E+00  0.00000000E+00  0.00000000E+00
  0.00000000E+00  0.00000000E+00  0.00000000E+00
  0.00000000E+00  0.00000000E+00  0.00000000E+00
  0.00000000E+00  0.00000000E+00  0.00000000E+00
  0.00000000E+00  0.00000000E+00  0.00000000E+00
  0.00000000E+00  0.00000000E+00  0.00000000E+00
  0.00000000E+00  0.00000000E+00  0.00000000E+00
  0.00000000E+00  0.00000000E+00  0.00000000E+00
  0.00000000E+00  0.00000000E+00  0.00000000E+00
  0.00000000E+00  0.00000000E+00  0.00000000E+00
  0.00000000E+00  0.00000000E+00  0.00000000E+00
  0.00000000E+00  0.00000000E+00  0.00000000E+00
  0.00000000E+00  0.00000000E+00  0.00000000E+00
  0.00000000E+00  0.00000000E+00  0.00000000E+00
