36-ZrHfVNbTa                            
   1.00000000000000     
     8.9788381177116783    0.0061978983438909   -0.0007049678569352
     0.0060357265906462    9.0768657928987100   -0.0043758150223008
    -0.0006737705654444   -0.0043351650041022    8.9681119846510899
   Zr   Ta   Hf   N    C    Nb   V 
     7     6     7    13    19     6     6
Direct
 -0.0070359944852855 -0.0052410628890372 -0.0006104404539482
  0.2518615774390269 -0.0031889214182983  0.2507754637492278
  0.2523317274661260  0.5020716110844432  0.2507453712462005
  0.5041846517586458  0.4994978426110568 -0.0009315311689031
  0.5020379302468991  0.2494254454738892  0.7450899849972207
 -0.0055566977163756  0.5051562119802854  0.4941818338845883
  0.5017033668440790  0.7516219070752805  0.7484383426078611
 -0.0050543004777764  0.2358188027176912  0.2642020153393095
  0.7574869468478778  0.7396129558050240  0.0117533814358204
  0.0011034087671637  0.2619614538463465  0.7389189487823884
  0.7536354748521955  0.2611344131090489  0.5057058494241556
 -0.0062516228071110  0.7452457170066380  0.7420114046674190
  0.2561804477761696  0.4997290636382014  0.7461205133516956
  0.2466430146980395  0.2500098702398043 -0.0023125405243399
  0.5086036700105425  0.2536985866546876  0.2543960920394414
  0.7500466680963036 -0.0096855034799264  0.2630914147835525
  0.7557526141434515  0.2570667966226132 -0.0050303609251069
  0.2444157335349583  0.7486230589231765  0.0005582910662406
  0.2508980656226166  0.2505199407898037  0.4998123513582488
  0.2453762471920676  0.7492110121933191  0.4983760026696478
  0.2495329702979816  0.2486022921857316  0.2489244596231893
  0.2540386734934171 -0.0008495496599324 -0.0045752341621650
  0.0018182718252802  0.2492114395247890  0.0005153806614395
  0.7535940806337218  0.2475923740642308  0.2544084513366800
  0.7483603617347540 -0.0012389087166425  0.0065371202107306
  0.5057355989118035  0.0026458633003857  0.2524252410296979
 -0.0071810055547178  0.4799548455777154  0.2430131754568960
  0.5025895178768898  0.7569569142857041  0.0041104554008607
 -0.0050488117390528  0.0013710254722389  0.7407602740764843
  0.7565316716723969  0.2460855180926169  0.7483909294046545
  0.7441822471803383  0.0120404971711939  0.5052128294661409
  0.5058591238320680  0.2435231149616935  0.4961086451249114
  0.4984167346851019  0.0004092440691928  0.7473265297221022
 -0.0024986978878955 -0.0020661760696860  0.2592260979531724
  0.5029030018349864  0.2444408054452271  0.0019939095233675
  0.2467167105990161  0.7498719127039382  0.2490922015367996
  0.2451908839976154  0.5003271039024118 -0.0045151801516667
 -0.0034214839081195  0.7450511042159723  0.0026600153034054
  0.7576757999498077  0.7413163469950620  0.2568916666722971
  0.7546560174695097  0.5031079287311039  0.0029390914649469
  0.5094445895510566  0.5015726470642330  0.2588119855541441
  0.2457358792570035  0.2506414991535859  0.7490117045633826
  0.2466146274239248 -0.0010711226873748  0.5011114313086318
 -0.0018444210771509  0.2439604186707775  0.5012254703706089
  0.2419904482972863  0.7505929619410168  0.7496024233447813
  0.2570407389892999  0.5002208100604996  0.5022474228379462
 -0.0096312901814052  0.7614857854081144  0.4964675710547707
 -0.0072460099779549  0.5003436060599802  0.7503045620542824
  0.7516349156291698  0.7451402290430270  0.7465711161838904
  0.7414515283920947  0.5035737828906295  0.4986729621392288
  0.5057783127768752  0.7467914628211522  0.4976430758029228
  0.5052488770628633  0.5009627748441273  0.7396372328505499
  0.5130590368381291  0.0080274731052432 -0.0089181552346760
 -0.0032634027894118  0.5033698354004450 -0.0026483612758809
  0.5057139408556178  0.7450491824026301  0.2551788132805579
  0.2439883588208488  0.0011894288104237  0.7427788379862624
  0.4879682628234027 -0.0148425498784596  0.5046417085861569
  0.7487806512355739 -0.0186326260566429  0.7540696644604187
 -0.0029768400667814  0.7753347069678397  0.2609416026915315
  0.7360226601717507  0.5146283418313428  0.2621211767648450
  0.0181721753862870 -0.0024796880324248  0.4969667192923231
  0.5078165111340807  0.5220299535496572  0.4993086496501288
  0.7405995785527800  0.5226713824417134  0.7381321365399734
  0.7498869461801967  0.7287974779515237  0.4893824732086114
 
  0.00000000E+00  0.00000000E+00  0.00000000E+00
  0.00000000E+00  0.00000000E+00  0.00000000E+00
  0.00000000E+00  0.00000000E+00  0.00000000E+00
  0.00000000E+00  0.00000000E+00  0.00000000E+00
  0.00000000E+00  0.00000000E+00  0.00000000E+00
  0.00000000E+00  0.00000000E+00  0.00000000E+00
  0.00000000E+00  0.00000000E+00  0.00000000E+00
  0.00000000E+00  0.00000000E+00  0.00000000E+00
  0.00000000E+00  0.00000000E+00  0.00000000E+00
  0.00000000E+00  0.00000000E+00  0.00000000E+00
  0.00000000E+00  0.00000000E+00  0.00000000E+00
  0.00000000E+00  0.00000000E+00  0.00000000E+00
  0.00000000E+00  0.00000000E+00  0.00000000E+00
  0.00000000E+00  0.00000000E+00  0.00000000E+00
  0.00000000E+00  0.00000000E+00  0.00000000E+00
  0.00000000E+00  0.00000000E+00  0.00000000E+00
  0.00000000E+00  0.00000000E+00  0.00000000E+00
  0.00000000E+00  0.00000000E+00  0.00000000E+00
  0.00000000E+00  0.00000000E+00  0.00000000E+00
  0.00000000E+00  0.00000000E+00  0.00000000E+00
  0.00000000E+00  0.00000000E+00  0.00000000E+00
  0.00000000E+00  0.00000000E+00  0.00000000E+00
  0.00000000E+00  0.00000000E+00  0.00000000E+00
  0.00000000E+00  0.00000000E+00  0.00000000E+00
  0.00000000E+00  0.00000000E+00  0.00000000E+00
  0.00000000E+00  0.00000000E+00  0.00000000E+00
  0.00000000E+00  0.00000000E+00  0.00000000E+00
  0.00000000E+00  0.00000000E+00  0.00000000E+00
  0.00000000E+00  0.00000000E+00  0.00000000E+00
  0.00000000E+00  0.00000000E+00  0.00000000E+00
  0.00000000E+00  0.00000000E+00  0.00000000E+00
  0.00000000E+00  0.00000000E+00  0.00000000E+00
  0.00000000E+00  0.00000000E+00  0.00000000E+00
  0.00000000E+00  0.00000000E+00  0.00000000E+00
  0.00000000E+00  0.00000000E+00  0.00000000E+00
  0.00000000E+00  0.00000000E+00  0.00000000E+00
  0.00000000E+00  0.00000000E+00  0.00000000E+00
  0.00000000E+00  0.00000000E+00  0.00000000E+00
  0.00000000E+00  0.00000000E+00  0.00000000E+00
  0.00000000E+00  0.00000000E+00  0.00000000E+00
  0.00000000E+00  0.00000000E+00  0.00000000E+00
  0.00000000E+00  0.00000000E+00  0.00000000E+00
  0.00000000E+00  0.00000000E+00  0.00000000E+00
  0.00000000E+00  0.00000000E+00  0.00000000E+00
  0.00000000E+00  0.00000000E+00  0.00000000E+00
  0.00000000E+00  0.00000000E+00  0.00000000E+00
  0.00000000E+00  0.00000000E+00  0.00000000E+00
  0.00000000E+00  0.00000000E+00  0.00000000E+00
  0.00000000E+00  0.00000000E+00  0.00000000E+00
  0.00000000E+00  0.00000000E+00  0.00000000E+00
  0.00000000E+00  0.00000000E+00  0.00000000E+00
  0.00000000E+00  0.00000000E+00  0.00000000E+00
  0.00000000E+00  0.00000000E+00  0.00000000E+00
  0.00000000E+00  0.00000000E+00  0.00000000E+00
  0.00000000E+00  0.00000000E+00  0.00000000E+00
  0.00000000E+00  0.00000000E+00  0.00000000E+00
  0.00000000E+00  0.00000000E+00  0.00000000E+00
  0.00000000E+00  0.00000000E+00  0.00000000E+00
  0.00000000E+00  0.00000000E+00  0.00000000E+00
  0.00000000E+00  0.00000000E+00  0.00000000E+00
  0.00000000E+00  0.00000000E+00  0.00000000E+00
  0.00000000E+00  0.00000000E+00  0.00000000E+00
  0.00000000E+00  0.00000000E+00  0.00000000E+00
  0.00000000E+00  0.00000000E+00  0.00000000E+00
