110-ZrVNbTaCr                           
   1.00000000000000     
     8.8227001518998485    0.0080894236493190   -0.0392237544892434
     0.0139390297154711    8.8070843976343660   -0.0348021658976406
    -0.0075520239118888   -0.0500021130872938    8.8386921170710853
   V    Nb   Zr   N    C    Cr   Ta
     7     6     7    13    19     6     6
Direct
  0.0099281943632703  0.9778032216526379  0.0154298356452370
  0.2479776585574033  0.9822023354809968  0.2659633882318969
  0.2769147751766836  0.5178525517511647  0.2398850116673522
  0.4986376215219167  0.4703310853662762  0.9920133801932344
  0.4780940055322458  0.2449540028680836  0.7525832836654491
  0.9954696184744222  0.4923070236231240  0.5201860736738578
  0.5047948144597811  0.7738224456755243  0.7411139316963284
 -0.0005390242572263  0.2535286238176394  0.2572734899299849
  0.7437314236565654  0.7514051498194363 -0.0018138043904443
  0.0110940946810193  0.2453471206000989  0.7437983755841235
  0.7547033321267597  0.2587715705522201  0.5079695750693992
  0.0034475513383563  0.7577346764622597  0.7553518510282533
  0.2516342921681133  0.5033895799307203  0.7592556916449354
  0.2427562473426489  0.2413753965882686  0.0027672641861423
  0.4953217572089474  0.2412152995195255  0.2463740346591879
  0.7424750657145116  0.9948181684952485  0.2494881108325421
  0.7553735483550760  0.2470211717545873  0.9882173020219004
  0.2722607873481650  0.7605588365789271  0.0023068558813215
  0.2516354329512567  0.2518846085942339  0.4978969894882519
  0.2466467955417687  0.7465438653983547  0.5040797747449596
  0.2447929058918510  0.2510809561222503  0.2503520162915306
  0.2312797623724175 -0.0015513979812712  0.0196412477721562
 -0.0007675405713345  0.2335625452634833  0.0030011053802339
  0.7501813145570154  0.2516957427381008  0.2507258938321574
  0.7518656234480176  0.9958136935378498 -0.0120426090637018
  0.4872350720996012  0.9866902536510759  0.2696827458453351
  0.9941503546563099  0.4978925962341516  0.2490141322078067
  0.5118232825059246  0.7846078818128106 -0.0218812950747947
  0.9943827420926322  0.0012841200284508  0.7523927350359755
  0.7526210994759774  0.2534895294256020  0.7422964537457656
  0.7556072668442150 -0.0001152294557584  0.5079630940666595
  0.5058696532806884  0.2530998376424248  0.5064659296769283
  0.5210949806654538  0.0150949566680412  0.7276209998496166
  0.0043604026069106 -0.0036304695120237  0.2486852417921776
  0.4996215405224134  0.2384805766770846 -0.0137819911602692
  0.2564554141242342  0.7466051809271602  0.2526878355835016
  0.2483407970543194  0.5027259309771451  0.0087335093794541
  0.0030575380743285  0.7497886100126454  0.0027800146152549
  0.7417705437659705  0.7450043802908272  0.2509983678588396
  0.7503312616180798  0.5036857074485992 -0.0001246653226406
  0.4964831281526175  0.5088403885155479  0.2440613077461866
  0.2563694584070952  0.2421904326261209  0.7507478381402191
  0.2574275765904294  0.9974851687243298  0.5080330556336591
 -0.0011596397730251  0.2531827563867264  0.5014325138564063
  0.2570064514117655  0.7634920646216761  0.7527106284946232
  0.2478833358936747  0.4993059086907775  0.4964934891463064
  0.9938260311841278  0.7458635670465471  0.5015849138235948
  0.9989542561272895  0.5008614062225454  0.7547023766407004
  0.7454503402579760  0.7560745724870509  0.7500204080869407
  0.7525524687106412  0.5019633636062986  0.5013466195137104
  0.5012827483553718  0.7557754138989375  0.5059134656797092
  0.5007248318276855  0.4983976299713939  0.7563595852051539
  0.5283627280522364  0.0157110792583670  0.9423110957934531
  0.0043454537201290  0.5315182555846660  0.9768360391208258
  0.4995823079894217  0.7513094549675609  0.2835638233264399
  0.2295169053434393 -0.0022358153737893  0.7323014051837158
  0.4747574405263051  0.9775664905309112  0.4906550883333873
  0.7333964284585214  0.9771565901486950  0.7604962707546814
 -0.0010077129733655  0.7411699660023909  0.2495598139568571
  0.7368623938015745  0.5019812295369099  0.2441320273269407
  0.0042946170275363  0.0034740296153595  0.4986480585428439
  0.4991205397984694  0.5035149907807956  0.5062290105969072
  0.7466993403815668  0.5096805009339190  0.7548871245954527
  0.7508369393817855  0.7475481691782873  0.5016229987354039
 
  0.00000000E+00  0.00000000E+00  0.00000000E+00
  0.00000000E+00  0.00000000E+00  0.00000000E+00
  0.00000000E+00  0.00000000E+00  0.00000000E+00
  0.00000000E+00  0.00000000E+00  0.00000000E+00
  0.00000000E+00  0.00000000E+00  0.00000000E+00
  0.00000000E+00  0.00000000E+00  0.00000000E+00
  0.00000000E+00  0.00000000E+00  0.00000000E+00
  0.00000000E+00  0.00000000E+00  0.00000000E+00
  0.00000000E+00  0.00000000E+00  0.00000000E+00
  0.00000000E+00  0.00000000E+00  0.00000000E+00
  0.00000000E+00  0.00000000E+00  0.00000000E+00
  0.00000000E+00  0.00000000E+00  0.00000000E+00
  0.00000000E+00  0.00000000E+00  0.00000000E+00
  0.00000000E+00  0.00000000E+00  0.00000000E+00
  0.00000000E+00  0.00000000E+00  0.00000000E+00
  0.00000000E+00  0.00000000E+00  0.00000000E+00
  0.00000000E+00  0.00000000E+00  0.00000000E+00
  0.00000000E+00  0.00000000E+00  0.00000000E+00
  0.00000000E+00  0.00000000E+00  0.00000000E+00
  0.00000000E+00  0.00000000E+00  0.00000000E+00
  0.00000000E+00  0.00000000E+00  0.00000000E+00
  0.00000000E+00  0.00000000E+00  0.00000000E+00
  0.00000000E+00  0.00000000E+00  0.00000000E+00
  0.00000000E+00  0.00000000E+00  0.00000000E+00
  0.00000000E+00  0.00000000E+00  0.00000000E+00
  0.00000000E+00  0.00000000E+00  0.00000000E+00
  0.00000000E+00  0.00000000E+00  0.00000000E+00
  0.00000000E+00  0.00000000E+00  0.00000000E+00
  0.00000000E+00  0.00000000E+00  0.00000000E+00
  0.00000000E+00  0.00000000E+00  0.00000000E+00
  0.00000000E+00  0.00000000E+00  0.00000000E+00
  0.00000000E+00  0.00000000E+00  0.00000000E+00
  0.00000000E+00  0.00000000E+00  0.00000000E+00
  0.00000000E+00  0.00000000E+00  0.00000000E+00
  0.00000000E+00  0.00000000E+00  0.00000000E+00
  0.00000000E+00  0.00000000E+00  0.00000000E+00
  0.00000000E+00  0.00000000E+00  0.00000000E+00
  0.00000000E+00  0.00000000E+00  0.00000000E+00
  0.00000000E+00  0.00000000E+00  0.00000000E+00
  0.00000000E+00  0.00000000E+00  0.00000000E+00
  0.00000000E+00  0.00000000E+00  0.00000000E+00
  0.00000000E+00  0.00000000E+00  0.00000000E+00
  0.00000000E+00  0.00000000E+00  0.00000000E+00
  0.00000000E+00  0.00000000E+00  0.00000000E+00
  0.00000000E+00  0.00000000E+00  0.00000000E+00
  0.00000000E+00  0.00000000E+00  0.00000000E+00
  0.00000000E+00  0.00000000E+00  0.00000000E+00
  0.00000000E+00  0.00000000E+00  0.00000000E+00
  0.00000000E+00  0.00000000E+00  0.00000000E+00
  0.00000000E+00  0.00000000E+00  0.00000000E+00
  0.00000000E+00  0.00000000E+00  0.00000000E+00
  0.00000000E+00  0.00000000E+00  0.00000000E+00
  0.00000000E+00  0.00000000E+00  0.00000000E+00
  0.00000000E+00  0.00000000E+00  0.00000000E+00
  0.00000000E+00  0.00000000E+00  0.00000000E+00
  0.00000000E+00  0.00000000E+00  0.00000000E+00
  0.00000000E+00  0.00000000E+00  0.00000000E+00
  0.00000000E+00  0.00000000E+00  0.00000000E+00
  0.00000000E+00  0.00000000E+00  0.00000000E+00
  0.00000000E+00  0.00000000E+00  0.00000000E+00
  0.00000000E+00  0.00000000E+00  0.00000000E+00
  0.00000000E+00  0.00000000E+00  0.00000000E+00
  0.00000000E+00  0.00000000E+00  0.00000000E+00
  0.00000000E+00  0.00000000E+00  0.00000000E+00
