43-ZrHfNbTaW                            
   1.00000000000000     
     9.0319072065539814    0.0011220921126919    0.0120371733733575
     0.0069063194588154    9.0713468748401169   -0.0015504812009354
     0.0444724336994382   -0.0172824143901701    9.0141399216378542
  Zr              W               Hf              N               C               Ta              Nb            
     7     6     7    13    19     6     6
Direct
  0.9937576667600710  0.9986957248072057  0.9979093290449281
  0.2497062049223377  0.9999627556957388  0.2529590349329824
  0.2514839484608178  0.5004476467530351  0.2501735285239364
  0.4999823996466540  0.5001029748961048  0.0001438352840057
  0.4990474998911977  0.2478975531777628  0.7454798176153916
  0.9981657544202868  0.4999096356556433  0.4967568501201563
  0.4999381314870865  0.7522643991443726  0.7487179948948355
  0.9874001402107621  0.2301885199390808  0.2700913328914106
  0.7698412605841326  0.7363888828503261  0.9977370647971686
  0.0165062873500939  0.2752933087829596  0.7512524756964388
  0.7659946900383494  0.2626250189162666  0.4829434069005368
  0.9952806271594845  0.7248864513531614  0.7534993045832035
  0.2618373739874071  0.4921585802643930  0.7478823159595419
  0.2454926152438157  0.2503908357123203  0.9955110005450287
  0.5046412492674145  0.2540399482593320  0.2515978915367580
  0.7481411536887291  0.9959003080282665  0.2534178029543227
  0.7557036960472712  0.2587035081012728  0.9936203747656462
  0.2421887192758226  0.7496848690812496  0.9979640532153715
  0.2465866233811040  0.2511252812997870  0.5042923342765636
  0.2448189942809854  0.7500750852225514  0.5039063614677644
  0.2449431582100006  0.2485007342524269  0.2516412315318186
  0.2568443137673364  0.9997880846256747  0.9949939659845468
  0.0003707937509661  0.2533242317706466  0.0115119821674155
  0.7507554188441962  0.2483234859017656  0.2449037625819781
  0.7455569617391079  0.9997210103632715  0.0009588308795258
  0.5026140379747366  0.9999073468958835  0.2493053557066429
  0.9953226999495428  0.4895033814638549  0.2427656912852119
  0.5007542663263316  0.7608371424896131  0.0054672450353305
  0.9991457133802535  0.0070987367989510  0.7481986248821217
  0.7610923920824243  0.2408657761810518  0.7440148931884886
  0.7427396263526994  0.0057014946286802  0.5033293404450413
  0.5055869912516739  0.2414207806013113  0.4943878720334399
  0.5005774779981862  0.0002329891082487  0.7479439042448943
  0.9958513099185332  0.9994404574885694  0.2530815728943824
  0.5035705567703018  0.2436933940603503  0.0012884179684258
  0.2511169442818648  0.7509831237052326  0.2494343975997270
  0.2439763278257879  0.4998564079656543  0.9949043216377308
  0.9997971941419844  0.7461907943839454  0.0002688181249275
  0.7467104551021657  0.7483156627623782  0.2449621585742780
  0.7557750451731460  0.5031997963888313  0.9989813687387937
  0.5021983153574191  0.5019818179067779  0.2526027342775762
  0.2501418398323558  0.2490416212599311  0.7497051770108130
  0.2493867354164862  0.0003214346095729  0.5031453056198200
  0.9952460609664676  0.2484925605273318  0.5136840249164458
  0.2411517787796273  0.7522014566269252  0.7513231167028940
  0.2531630050330552  0.4998254213471747  0.5050214734148093
  0.9960849643121569  0.7551059588742273  0.5071410652160612
  0.0027780185933653  0.5004712660533749  0.7522064917992631
  0.7529745795786046  0.7525082889972927  0.7523696035166730
  0.7469631556277255  0.4952677364776689  0.4989661896017600
  0.4997770815137376  0.7510054443150616  0.4968246163699824
  0.4985624439696866  0.4999338940348240  0.7453107621621516
  0.5085046172559605  0.0078657325785068  0.9931347270477504
  0.9992384528301493  0.5032166243367037  0.0006220953996830
  0.4998837145827197  0.7451466892805430  0.2536019997321714
  0.2415238478797953  0.0041408109152946  0.7439485462658653
  0.4901041261123987  0.9879822699107152  0.5027477158924398
  0.7537659792652089  0.9890825159896622  0.7519968545078838
  0.9976128622488941  0.7655742755750187  0.2536883005419878
  0.7430268525205170  0.5060545712827867  0.2506608901901269
  0.0045307838527354  0.0021760570090593  0.4987852950194201
  0.5003069621418441  0.5128898578798953  0.4975568068353929
  0.7402947250863141  0.5123240887237065  0.7479180109889976
  0.7531627522977304  0.7397432367108280  0.4988384674593436
 
  0.00000000E+00  0.00000000E+00  0.00000000E+00
  0.00000000E+00  0.00000000E+00  0.00000000E+00
  0.00000000E+00  0.00000000E+00  0.00000000E+00
  0.00000000E+00  0.00000000E+00  0.00000000E+00
  0.00000000E+00  0.00000000E+00  0.00000000E+00
  0.00000000E+00  0.00000000E+00  0.00000000E+00
  0.00000000E+00  0.00000000E+00  0.00000000E+00
  0.00000000E+00  0.00000000E+00  0.00000000E+00
  0.00000000E+00  0.00000000E+00  0.00000000E+00
  0.00000000E+00  0.00000000E+00  0.00000000E+00
  0.00000000E+00  0.00000000E+00  0.00000000E+00
  0.00000000E+00  0.00000000E+00  0.00000000E+00
  0.00000000E+00  0.00000000E+00  0.00000000E+00
  0.00000000E+00  0.00000000E+00  0.00000000E+00
  0.00000000E+00  0.00000000E+00  0.00000000E+00
  0.00000000E+00  0.00000000E+00  0.00000000E+00
  0.00000000E+00  0.00000000E+00  0.00000000E+00
  0.00000000E+00  0.00000000E+00  0.00000000E+00
  0.00000000E+00  0.00000000E+00  0.00000000E+00
  0.00000000E+00  0.00000000E+00  0.00000000E+00
  0.00000000E+00  0.00000000E+00  0.00000000E+00
  0.00000000E+00  0.00000000E+00  0.00000000E+00
  0.00000000E+00  0.00000000E+00  0.00000000E+00
  0.00000000E+00  0.00000000E+00  0.00000000E+00
  0.00000000E+00  0.00000000E+00  0.00000000E+00
  0.00000000E+00  0.00000000E+00  0.00000000E+00
  0.00000000E+00  0.00000000E+00  0.00000000E+00
  0.00000000E+00  0.00000000E+00  0.00000000E+00
  0.00000000E+00  0.00000000E+00  0.00000000E+00
  0.00000000E+00  0.00000000E+00  0.00000000E+00
  0.00000000E+00  0.00000000E+00  0.00000000E+00
  0.00000000E+00  0.00000000E+00  0.00000000E+00
  0.00000000E+00  0.00000000E+00  0.00000000E+00
  0.00000000E+00  0.00000000E+00  0.00000000E+00
  0.00000000E+00  0.00000000E+00  0.00000000E+00
  0.00000000E+00  0.00000000E+00  0.00000000E+00
  0.00000000E+00  0.00000000E+00  0.00000000E+00
  0.00000000E+00  0.00000000E+00  0.00000000E+00
  0.00000000E+00  0.00000000E+00  0.00000000E+00
  0.00000000E+00  0.00000000E+00  0.00000000E+00
  0.00000000E+00  0.00000000E+00  0.00000000E+00
  0.00000000E+00  0.00000000E+00  0.00000000E+00
  0.00000000E+00  0.00000000E+00  0.00000000E+00
  0.00000000E+00  0.00000000E+00  0.00000000E+00
  0.00000000E+00  0.00000000E+00  0.00000000E+00
  0.00000000E+00  0.00000000E+00  0.00000000E+00
  0.00000000E+00  0.00000000E+00  0.00000000E+00
  0.00000000E+00  0.00000000E+00  0.00000000E+00
  0.00000000E+00  0.00000000E+00  0.00000000E+00
  0.00000000E+00  0.00000000E+00  0.00000000E+00
  0.00000000E+00  0.00000000E+00  0.00000000E+00
  0.00000000E+00  0.00000000E+00  0.00000000E+00
  0.00000000E+00  0.00000000E+00  0.00000000E+00
  0.00000000E+00  0.00000000E+00  0.00000000E+00
  0.00000000E+00  0.00000000E+00  0.00000000E+00
  0.00000000E+00  0.00000000E+00  0.00000000E+00
  0.00000000E+00  0.00000000E+00  0.00000000E+00
  0.00000000E+00  0.00000000E+00  0.00000000E+00
  0.00000000E+00  0.00000000E+00  0.00000000E+00
  0.00000000E+00  0.00000000E+00  0.00000000E+00
  0.00000000E+00  0.00000000E+00  0.00000000E+00
  0.00000000E+00  0.00000000E+00  0.00000000E+00
  0.00000000E+00  0.00000000E+00  0.00000000E+00
  0.00000000E+00  0.00000000E+00  0.00000000E+00
