72-TiVNbCrW                             
   1.00000000000000     
     8.5600329161074704   -0.0004956107294272   -0.0094248900436606
     0.0053055904394932    8.5400387404977973   -0.0035626295965304
     0.0213089095441446   -0.0185666765674108    8.5918434714022300
   V    Nb   Ti   N    C    Cr   W 
     7     6     7    13    19     6     6
Direct
  0.0140024808676082  0.9868716552413594  0.0123086665924064
  0.2557566508436296  0.9869786928123797  0.2542879735039937
  0.2704919280628011  0.5099749376488667  0.2454393707543062
  0.4969391881800105  0.4815401120462246  0.9965287422189230
  0.4842121712288601  0.2377318798256415  0.7595085111021046
  0.0067910244696985  0.4946199951656314  0.5210275057521899
  0.5009472973815388  0.7499026275449460  0.7389518488902961
  0.9981366558025975  0.2560833846872480  0.2510374836963516
  0.7423852702550583  0.7527446626448252  0.0012536769314450
  0.0094102793582077  0.2420974740375751  0.7505704832557688
  0.7517099295724566  0.2518912929459901  0.5071404365109092
  0.0023798487956185  0.7567228385736675  0.7514380543906792
  0.2537160783389376  0.5013815311857921  0.7547776918983757
  0.2497709934869115  0.2445209158576017  0.0038458955808218
  0.4976457264884491  0.2449554122676952  0.2470981423777853
  0.7434325618454294  0.9969584826846695  0.2513328686364715
  0.7486446673736002  0.2453931766887381  0.9935996990787376
  0.2636655049803996  0.7557743738038295  0.0008777023210813
  0.2537326854216336  0.2500524954860942  0.4974491719774805
  0.2508380388254524  0.7505114385012531  0.5007088501704595
  0.2533898707106708  0.2509484403164929  0.2499950423385751
  0.2540179151793552  0.0000580832937670  0.0046643991381065
  0.0007629194960722  0.2444730599001511  0.0016063567837394
  0.7424245132651842  0.2434265246193203  0.2467832128116958
  0.7512740360731773  0.0032433262518309  0.0007284011084975
  0.4954869605438958  0.9959854324845172  0.2376491274188982
  0.0013285818390852  0.5033994167020927  0.2479759360332383
  0.4993536220895862  0.7546660411453765  0.9950562860103566
  0.9912423526047015  0.0006821275989272  0.7522599791764674
  0.7440392164992399  0.2411165391800046  0.7533234855629783
  0.7500094979218319  0.9987440625153436  0.4991162099721520
  0.4982162686031626  0.2424624913770615  0.5006125087777242
  0.4944308632082126  0.0020271790214358  0.7545097933520254
  0.0041059660589492  0.0006034601459108  0.2465174484561618
  0.4989576640997568  0.2480727628917555  0.9983116350686113
  0.2554938563479426  0.7488565658522145  0.2503736007644142
  0.2488772451377080  0.5004009466041736  0.0086497639889941
  0.0078673976123326  0.7497033751732218  0.0020466044866874
  0.7417616899882653  0.7510487742508989  0.2503773157023796
  0.7570100174832237  0.4951849837365681  0.0021211631497250
  0.4955060382536625  0.5083082591467057  0.2444798061101929
  0.2563601245822616  0.2417170181088101  0.7519752883594262
  0.2599187961497371  0.9997238550296498  0.5050815043222571
  0.0067983684095176  0.2552004469859999  0.5009350293177565
  0.2581614367897983  0.7595979661267390  0.7502530032366401
  0.2480094317622174  0.5004273003702018  0.4939318434463633
  0.0022818585495552  0.7471036760839609  0.4975145456619209
  0.9981792926985003  0.4999302914160504  0.7536936628366550
  0.7429554656458393  0.7608482525903225  0.7455550971827484
  0.7578103152085243  0.4986983352377243  0.4990905862112969
  0.4978419881429826  0.7606074698129216  0.5002202364661916
  0.5025453125171874  0.4969147321520451  0.7535904830858917
  0.5126231910514645  0.0199982264911472  0.9821514692906884
  0.0099127666172648  0.5217663700532175  0.9790325831666234
  0.4886395747525950  0.7656553086917353  0.2703513540420864
  0.2364169579094796  0.9980096340697994  0.7418666277797537
  0.4805558972264100  0.9940656448140296  0.4692056570343547
  0.7150150128389006  0.9861977028218277  0.7775577746512370
  0.0052626874454495  0.7528328025689407  0.2477537222361337
  0.7331333028275913  0.5001199654336244  0.2443235982365658
  0.0145157743665296  0.0060011416508242  0.4923528590919707
  0.4986045764406043  0.5055401280200135  0.5026326951247032
  0.7444406082861713  0.5088706761381834  0.7577135254221987
  0.7498521611864934  0.7400535744744450  0.4968761379443701
 
  0.00000000E+00  0.00000000E+00  0.00000000E+00
  0.00000000E+00  0.00000000E+00  0.00000000E+00
  0.00000000E+00  0.00000000E+00  0.00000000E+00
  0.00000000E+00  0.00000000E+00  0.00000000E+00
  0.00000000E+00  0.00000000E+00  0.00000000E+00
  0.00000000E+00  0.00000000E+00  0.00000000E+00
  0.00000000E+00  0.00000000E+00  0.00000000E+00
  0.00000000E+00  0.00000000E+00  0.00000000E+00
  0.00000000E+00  0.00000000E+00  0.00000000E+00
  0.00000000E+00  0.00000000E+00  0.00000000E+00
  0.00000000E+00  0.00000000E+00  0.00000000E+00
  0.00000000E+00  0.00000000E+00  0.00000000E+00
  0.00000000E+00  0.00000000E+00  0.00000000E+00
  0.00000000E+00  0.00000000E+00  0.00000000E+00
  0.00000000E+00  0.00000000E+00  0.00000000E+00
  0.00000000E+00  0.00000000E+00  0.00000000E+00
  0.00000000E+00  0.00000000E+00  0.00000000E+00
  0.00000000E+00  0.00000000E+00  0.00000000E+00
  0.00000000E+00  0.00000000E+00  0.00000000E+00
  0.00000000E+00  0.00000000E+00  0.00000000E+00
  0.00000000E+00  0.00000000E+00  0.00000000E+00
  0.00000000E+00  0.00000000E+00  0.00000000E+00
  0.00000000E+00  0.00000000E+00  0.00000000E+00
  0.00000000E+00  0.00000000E+00  0.00000000E+00
  0.00000000E+00  0.00000000E+00  0.00000000E+00
  0.00000000E+00  0.00000000E+00  0.00000000E+00
  0.00000000E+00  0.00000000E+00  0.00000000E+00
  0.00000000E+00  0.00000000E+00  0.00000000E+00
  0.00000000E+00  0.00000000E+00  0.00000000E+00
  0.00000000E+00  0.00000000E+00  0.00000000E+00
  0.00000000E+00  0.00000000E+00  0.00000000E+00
  0.00000000E+00  0.00000000E+00  0.00000000E+00
  0.00000000E+00  0.00000000E+00  0.00000000E+00
  0.00000000E+00  0.00000000E+00  0.00000000E+00
  0.00000000E+00  0.00000000E+00  0.00000000E+00
  0.00000000E+00  0.00000000E+00  0.00000000E+00
  0.00000000E+00  0.00000000E+00  0.00000000E+00
  0.00000000E+00  0.00000000E+00  0.00000000E+00
  0.00000000E+00  0.00000000E+00  0.00000000E+00
  0.00000000E+00  0.00000000E+00  0.00000000E+00
  0.00000000E+00  0.00000000E+00  0.00000000E+00
  0.00000000E+00  0.00000000E+00  0.00000000E+00
  0.00000000E+00  0.00000000E+00  0.00000000E+00
  0.00000000E+00  0.00000000E+00  0.00000000E+00
  0.00000000E+00  0.00000000E+00  0.00000000E+00
  0.00000000E+00  0.00000000E+00  0.00000000E+00
  0.00000000E+00  0.00000000E+00  0.00000000E+00
  0.00000000E+00  0.00000000E+00  0.00000000E+00
  0.00000000E+00  0.00000000E+00  0.00000000E+00
  0.00000000E+00  0.00000000E+00  0.00000000E+00
  0.00000000E+00  0.00000000E+00  0.00000000E+00
  0.00000000E+00  0.00000000E+00  0.00000000E+00
  0.00000000E+00  0.00000000E+00  0.00000000E+00
  0.00000000E+00  0.00000000E+00  0.00000000E+00
  0.00000000E+00  0.00000000E+00  0.00000000E+00
  0.00000000E+00  0.00000000E+00  0.00000000E+00
  0.00000000E+00  0.00000000E+00  0.00000000E+00
  0.00000000E+00  0.00000000E+00  0.00000000E+00
  0.00000000E+00  0.00000000E+00  0.00000000E+00
  0.00000000E+00  0.00000000E+00  0.00000000E+00
  0.00000000E+00  0.00000000E+00  0.00000000E+00
  0.00000000E+00  0.00000000E+00  0.00000000E+00
  0.00000000E+00  0.00000000E+00  0.00000000E+00
  0.00000000E+00  0.00000000E+00  0.00000000E+00
