123-HfTaCrMoW                           
   1.00000000000000     
     8.7704084450918476   -0.0038244700242096   -0.0021530225134771
     0.0017179709597991    8.8533291113730908   -0.0027178959611506
     0.0293854364577664   -0.0179889407577426    8.8646231481589819
   Ta   W    Hf   N    C    Cr   Mo
     7     6     7    13    19     6     6
Direct
 -0.0004129807717933  0.9869117977880871  0.0023723726355313
  0.2524420614906338  0.9912938382917718  0.2623402484911174
  0.2480840784205663  0.5123799764377752  0.2438488557710998
  0.5055026178303845  0.4933385148144716  0.9934716863208645
  0.4968201709547760  0.2482089964082431  0.7484268367427132
 -0.0030272735736459  0.5028213227708503  0.5048778030140546
  0.5050912195308773  0.7542175723117115  0.7390207145902504
  0.9918199726180817  0.2302775747517497  0.2656623904035915
  0.7659319428764223  0.7433763403985062 -0.0028117091365914
  0.0194723759395737  0.2391820381800425  0.7385573367266411
  0.7655635047098928  0.2488667150806572  0.4840225004015888
  0.0011125143504794  0.7432527380943055  0.7547809654174146
  0.2497603146774612  0.5060609617258855  0.7546786580406143
  0.2448082760795288  0.2476862082227449  0.9964717323663224
  0.5017081709328667  0.2502900046478005  0.2490294005903295
  0.7341299182011344  0.9875075151555710  0.2575444546402657
  0.7561474707560235  0.2503861036361518  0.9863247088236063
  0.2662291769792899  0.7586855816896138 -0.0003094885664625
  0.2578597657995675  0.2533512847487374  0.5032213882717729
  0.2467880148346955  0.7537751421443516  0.5022001045047725
  0.2474123688122422  0.2502075921988538  0.2519062659718350
  0.2461762600222206  0.0029035405906333  0.0101447183368518
 -0.0006127908571331  0.2363004738424681  0.0095020930660900
  0.7504688819145215  0.2416478949131226  0.2435648267375554
  0.7464132249551862  0.9932272909156886  0.0033131152430477
  0.4931733424821041  0.0021917300980450  0.2370040401764374
  0.0020429717884342  0.4814755382635040  0.2604940628143962
  0.5114934354184969  0.7509971105324068 -0.0108760647025405
  0.9815438625948341 -0.0007131547940107  0.7585547211642080
  0.7546886631525954  0.2374319565383630  0.7420662938616771
  0.7386113703247711  0.0130444866798830  0.5012396752069971
  0.5100056096850233  0.2510111593891375  0.4992504450487565
  0.5199034378631942  0.0007400237814203  0.7493316963257912
 -0.0036128492154115 -0.0025758210459972  0.2574135254232697
  0.5024670028170540  0.2521617944832910 -0.0044618146618010
  0.2603381912341367  0.7527782047693783  0.2513151133484416
  0.2420464055948058  0.5032967345395786  0.9980443245754500
  0.0089238360007859  0.7425095867261141  0.0018140230109812
  0.7406597557803899  0.7382773006420502  0.2415944950508010
  0.7644207796741126  0.5024803740461585  0.0075018168547963
  0.4928898715160476  0.5076476463336241  0.2445395489294379
  0.2562290446690777  0.2420668870363989  0.7494205566229659
  0.2534987419310364  0.0027755414963510  0.5086456833831594
  0.0046318948798801  0.2580273500296781  0.5045412903674661
  0.2519664947126902  0.7612466333606426  0.7508273232711847
  0.2486774686449428  0.5036502138096275  0.4995215833953338
  0.9915837698820539  0.7551217991825236  0.5040096305163384
  0.9986678086425849  0.4920133002040679  0.7526985900183757
  0.7545652445369462  0.7606482490972291  0.7415766324427884
  0.7463064455948494  0.4885289314054695  0.5098161621238547
  0.5047615814092817  0.7689150240928212  0.4921148714946709
  0.5002514041993977  0.5013076257634437  0.7437995346788658
  0.5161048901588293  0.0248663347099581  0.9762841094842146
  0.9930540135889881  0.5307403552767678  0.9666586556983098
  0.5090755740290078  0.7286322478923737  0.2800368858933172
  0.2130278280043377  0.0021108094077880  0.7200762250175602
  0.4843799730564622  0.9921927972906770  0.5257741619238828
  0.7322718318293568  0.9726020308542567  0.7843539574851052
 -0.0047788045480758  0.7661403944498789  0.2418526474621612
  0.7299084328254780  0.5047641033532532  0.2583126502942280
 -0.0005178716521291  0.0154927771361620  0.5098063792827002
  0.5017450994037580  0.5184884893226619  0.4906620761000380
  0.7501022661892554  0.5225679238840714  0.7594660373086612
  0.7492022998167472  0.7281882412011591  0.4927566099028602
 
  0.00000000E+00  0.00000000E+00  0.00000000E+00
  0.00000000E+00  0.00000000E+00  0.00000000E+00
  0.00000000E+00  0.00000000E+00  0.00000000E+00
  0.00000000E+00  0.00000000E+00  0.00000000E+00
  0.00000000E+00  0.00000000E+00  0.00000000E+00
  0.00000000E+00  0.00000000E+00  0.00000000E+00
  0.00000000E+00  0.00000000E+00  0.00000000E+00
  0.00000000E+00  0.00000000E+00  0.00000000E+00
  0.00000000E+00  0.00000000E+00  0.00000000E+00
  0.00000000E+00  0.00000000E+00  0.00000000E+00
  0.00000000E+00  0.00000000E+00  0.00000000E+00
  0.00000000E+00  0.00000000E+00  0.00000000E+00
  0.00000000E+00  0.00000000E+00  0.00000000E+00
  0.00000000E+00  0.00000000E+00  0.00000000E+00
  0.00000000E+00  0.00000000E+00  0.00000000E+00
  0.00000000E+00  0.00000000E+00  0.00000000E+00
  0.00000000E+00  0.00000000E+00  0.00000000E+00
  0.00000000E+00  0.00000000E+00  0.00000000E+00
  0.00000000E+00  0.00000000E+00  0.00000000E+00
  0.00000000E+00  0.00000000E+00  0.00000000E+00
  0.00000000E+00  0.00000000E+00  0.00000000E+00
  0.00000000E+00  0.00000000E+00  0.00000000E+00
  0.00000000E+00  0.00000000E+00  0.00000000E+00
  0.00000000E+00  0.00000000E+00  0.00000000E+00
  0.00000000E+00  0.00000000E+00  0.00000000E+00
  0.00000000E+00  0.00000000E+00  0.00000000E+00
  0.00000000E+00  0.00000000E+00  0.00000000E+00
  0.00000000E+00  0.00000000E+00  0.00000000E+00
  0.00000000E+00  0.00000000E+00  0.00000000E+00
  0.00000000E+00  0.00000000E+00  0.00000000E+00
  0.00000000E+00  0.00000000E+00  0.00000000E+00
  0.00000000E+00  0.00000000E+00  0.00000000E+00
  0.00000000E+00  0.00000000E+00  0.00000000E+00
  0.00000000E+00  0.00000000E+00  0.00000000E+00
  0.00000000E+00  0.00000000E+00  0.00000000E+00
  0.00000000E+00  0.00000000E+00  0.00000000E+00
  0.00000000E+00  0.00000000E+00  0.00000000E+00
  0.00000000E+00  0.00000000E+00  0.00000000E+00
  0.00000000E+00  0.00000000E+00  0.00000000E+00
  0.00000000E+00  0.00000000E+00  0.00000000E+00
  0.00000000E+00  0.00000000E+00  0.00000000E+00
  0.00000000E+00  0.00000000E+00  0.00000000E+00
  0.00000000E+00  0.00000000E+00  0.00000000E+00
  0.00000000E+00  0.00000000E+00  0.00000000E+00
  0.00000000E+00  0.00000000E+00  0.00000000E+00
  0.00000000E+00  0.00000000E+00  0.00000000E+00
  0.00000000E+00  0.00000000E+00  0.00000000E+00
  0.00000000E+00  0.00000000E+00  0.00000000E+00
  0.00000000E+00  0.00000000E+00  0.00000000E+00
  0.00000000E+00  0.00000000E+00  0.00000000E+00
  0.00000000E+00  0.00000000E+00  0.00000000E+00
  0.00000000E+00  0.00000000E+00  0.00000000E+00
  0.00000000E+00  0.00000000E+00  0.00000000E+00
  0.00000000E+00  0.00000000E+00  0.00000000E+00
  0.00000000E+00  0.00000000E+00  0.00000000E+00
  0.00000000E+00  0.00000000E+00  0.00000000E+00
  0.00000000E+00  0.00000000E+00  0.00000000E+00
  0.00000000E+00  0.00000000E+00  0.00000000E+00
  0.00000000E+00  0.00000000E+00  0.00000000E+00
  0.00000000E+00  0.00000000E+00  0.00000000E+00
  0.00000000E+00  0.00000000E+00  0.00000000E+00
  0.00000000E+00  0.00000000E+00  0.00000000E+00
  0.00000000E+00  0.00000000E+00  0.00000000E+00
  0.00000000E+00  0.00000000E+00  0.00000000E+00
