85-ZrVTaCrMo                            
   1.00000000000000     
     8.7515345716391320   -0.0216697850933872   -0.0027450300057846
    -0.0161382159877375    8.7816752169164047    0.0111583268954182
     0.0287646328563467   -0.0042053037922654    8.8001017794354226
   V    Ta   Zr   N    C    Cr   Mo
     7     6     7    13    19     6     6
Direct
  0.0048871629448055  0.9798950243633610  0.0254789444730088
  0.2353194702360107  0.9768190579176323  0.2484650220494269
  0.2694478985806301  0.5185236509449609  0.2445494395118978
  0.4999919743168522  0.4788593367390956  0.9895473299306107
  0.4784104494383169  0.2379289385616534  0.7555548081713764
  0.0016059082889227  0.4990564329071484  0.5300221460630032
  0.5082317853188217  0.7518813604631035  0.7316994729726042
 -0.0018577769774443  0.2740355408882126  0.2558211733904340
  0.7426825880737590  0.7481559464643365 -0.0008409518417358
  0.0110484279138759  0.2336204453518805  0.7468104823279991
  0.7485298825795236  0.2543148688627758  0.5145176247358225
  0.0003786459188033  0.7608625887350289  0.7476823775477593
  0.2561541234237544  0.5035106704877896  0.7533387294604377
  0.2430808361597807  0.2450933030052009  0.0026909665856946
  0.4939507047723843  0.2416456272179466  0.2478409462923432
  0.7401080704177643  0.9885999193808344  0.2589646221785000
  0.7533383158321151  0.2488486696734226  0.9906681526756173
  0.2700460749982707  0.7573680629764332 -0.0014795456898787
  0.2521138239778113  0.2520613769177344  0.4979356666049334
  0.2507610275523908  0.7503724744913274  0.4985425441584272
  0.2406608872599412  0.2543205970427952  0.2495819904608074
  0.2404592986272891 -0.0002563608545542  0.0026304290185373
 -0.0021320796329433  0.2394222681917200  0.0033367419196748
  0.7513742319470577  0.2477127976635538  0.2555012137191849
  0.7545591338651112  0.9929285941453939 -0.0074474708464443
  0.4916157225346701  0.9921551454763927  0.2200756336962555
  0.0013484572399405  0.4993528103144328  0.2476676440228904
  0.5125821205178709  0.7539455512409331 -0.0205639793031393
  0.0056440046991226  0.0001682066070647  0.7530600363837909
  0.7510131419583088  0.2423940038551540  0.7453283596958419
  0.7479544431001401  0.0072471109481569  0.5094359813615362
  0.5068932758999607  0.2433210948954848  0.5101362057303288
  0.5013580207434575  0.0010330790113446  0.7563701716296104
  0.0022996706655328  0.0045802587581886  0.2475854859712725
  0.4988935424042760  0.2497419196151049 -0.0108174432651396
  0.2651498839613226  0.7508370676245419  0.2488838463557075
  0.2471911066716042  0.5029817113640132  0.0043604637634933
  0.0012432417208302  0.7499402708299520  0.0001262410024695
  0.7425204857894731  0.7393822646184234  0.2466777493658079
  0.7573508947486808  0.5037775216544684  0.0022217874161057
  0.4899061897261853  0.5101375305297107  0.2421240408928921
  0.2544140804094344  0.2443113672609154  0.7509404891959214
  0.2566916963948716  0.0003318408770110  0.4951203974970953
  0.9957712167812494  0.2540396690813742  0.5011860443314414
  0.2572237892953360  0.7575931021014002  0.7484924128319214
  0.2457149914686344  0.5019716219052968  0.4952374340085158
  0.9937366204036070  0.7473638773909327  0.4997375896245757
  0.0002383519045786  0.5011044899857143  0.7535119943111738
  0.7456364147343356  0.7614182084833417  0.7425760193216305
  0.7589338729333865  0.4953823839330274  0.4967040871619037
  0.5085096222791061  0.7711185098857545  0.4970806432659094
  0.5040291504981221  0.4997153907812796  0.7517758398636002
  0.5187076865608988  0.0231598961374073  0.9898281204038076
  0.0019426970454414  0.5285548471852484  0.9694539033666980
  0.5059040299935937  0.7329069183488566  0.2823646903627094
  0.2603176232511606  0.0007123813332315  0.7399611014125894
  0.4719230130072904 -0.0016200429266131  0.5386916809661688
  0.7193901376834779  0.9788727543142244  0.7724254034298756
  0.0033250954895146  0.7541403030709971  0.2528360855192783
  0.7208677653555825  0.5069039901891123  0.2442246357636056
  0.0141708399815564  0.0012151613958548  0.4824572249337462
  0.5022039523451858  0.5106406642491497  0.5012162172350103
  0.7446631025151318  0.5172617706123634  0.7544071484245481
  0.7495695574535068  0.7263239055219689  0.4956858921785255
 
  0.00000000E+00  0.00000000E+00  0.00000000E+00
  0.00000000E+00  0.00000000E+00  0.00000000E+00
  0.00000000E+00  0.00000000E+00  0.00000000E+00
  0.00000000E+00  0.00000000E+00  0.00000000E+00
  0.00000000E+00  0.00000000E+00  0.00000000E+00
  0.00000000E+00  0.00000000E+00  0.00000000E+00
  0.00000000E+00  0.00000000E+00  0.00000000E+00
  0.00000000E+00  0.00000000E+00  0.00000000E+00
  0.00000000E+00  0.00000000E+00  0.00000000E+00
  0.00000000E+00  0.00000000E+00  0.00000000E+00
  0.00000000E+00  0.00000000E+00  0.00000000E+00
  0.00000000E+00  0.00000000E+00  0.00000000E+00
  0.00000000E+00  0.00000000E+00  0.00000000E+00
  0.00000000E+00  0.00000000E+00  0.00000000E+00
  0.00000000E+00  0.00000000E+00  0.00000000E+00
  0.00000000E+00  0.00000000E+00  0.00000000E+00
  0.00000000E+00  0.00000000E+00  0.00000000E+00
  0.00000000E+00  0.00000000E+00  0.00000000E+00
  0.00000000E+00  0.00000000E+00  0.00000000E+00
  0.00000000E+00  0.00000000E+00  0.00000000E+00
  0.00000000E+00  0.00000000E+00  0.00000000E+00
  0.00000000E+00  0.00000000E+00  0.00000000E+00
  0.00000000E+00  0.00000000E+00  0.00000000E+00
  0.00000000E+00  0.00000000E+00  0.00000000E+00
  0.00000000E+00  0.00000000E+00  0.00000000E+00
  0.00000000E+00  0.00000000E+00  0.00000000E+00
  0.00000000E+00  0.00000000E+00  0.00000000E+00
  0.00000000E+00  0.00000000E+00  0.00000000E+00
  0.00000000E+00  0.00000000E+00  0.00000000E+00
  0.00000000E+00  0.00000000E+00  0.00000000E+00
  0.00000000E+00  0.00000000E+00  0.00000000E+00
  0.00000000E+00  0.00000000E+00  0.00000000E+00
  0.00000000E+00  0.00000000E+00  0.00000000E+00
  0.00000000E+00  0.00000000E+00  0.00000000E+00
  0.00000000E+00  0.00000000E+00  0.00000000E+00
  0.00000000E+00  0.00000000E+00  0.00000000E+00
  0.00000000E+00  0.00000000E+00  0.00000000E+00
  0.00000000E+00  0.00000000E+00  0.00000000E+00
  0.00000000E+00  0.00000000E+00  0.00000000E+00
  0.00000000E+00  0.00000000E+00  0.00000000E+00
  0.00000000E+00  0.00000000E+00  0.00000000E+00
  0.00000000E+00  0.00000000E+00  0.00000000E+00
  0.00000000E+00  0.00000000E+00  0.00000000E+00
  0.00000000E+00  0.00000000E+00  0.00000000E+00
  0.00000000E+00  0.00000000E+00  0.00000000E+00
  0.00000000E+00  0.00000000E+00  0.00000000E+00
  0.00000000E+00  0.00000000E+00  0.00000000E+00
  0.00000000E+00  0.00000000E+00  0.00000000E+00
  0.00000000E+00  0.00000000E+00  0.00000000E+00
  0.00000000E+00  0.00000000E+00  0.00000000E+00
  0.00000000E+00  0.00000000E+00  0.00000000E+00
  0.00000000E+00  0.00000000E+00  0.00000000E+00
  0.00000000E+00  0.00000000E+00  0.00000000E+00
  0.00000000E+00  0.00000000E+00  0.00000000E+00
  0.00000000E+00  0.00000000E+00  0.00000000E+00
  0.00000000E+00  0.00000000E+00  0.00000000E+00
  0.00000000E+00  0.00000000E+00  0.00000000E+00
  0.00000000E+00  0.00000000E+00  0.00000000E+00
  0.00000000E+00  0.00000000E+00  0.00000000E+00
  0.00000000E+00  0.00000000E+00  0.00000000E+00
  0.00000000E+00  0.00000000E+00  0.00000000E+00
  0.00000000E+00  0.00000000E+00  0.00000000E+00
  0.00000000E+00  0.00000000E+00  0.00000000E+00
  0.00000000E+00  0.00000000E+00  0.00000000E+00
