112-TiZrCrMoW                           
   1.00000000000000     
     8.7483244397328033   -0.0002997593789154    0.0014225508560336
     0.0055110202426792    8.8196434427630130    0.0075284868599253
     0.0328292583521350   -0.0078589248335196    8.7553936402007988
   Zr   W    Ti   N    C    Cr   Mo
     7     6     7    13    19     6     6
Direct
  0.0023108425775211 -0.0022250440253230  0.9921998244994383
  0.2646003718649028  0.0014830934683185  0.2479410010537137
  0.2385686320196853  0.4936663710043313  0.2436090678783770
  0.5045183448915231  0.5002198788844505  0.0012826681292067
  0.5145483266138593  0.2465268030371398  0.7394737115207430
  0.9957561230350919  0.5001083313428230  0.5014065830140926
  0.4971773040665300  0.7631039406376027  0.7502922514741499
  0.9899473035258032  0.2272376521810816  0.2601696896341723
  0.7632682776714436  0.7446625856996173  0.0005752428140569
  0.0139653514312529  0.2415622980032412  0.7404847695997846
  0.7551668965391015  0.2544339417028650  0.4801846395525962
 -0.0034593564150315  0.7326091500972385  0.7551899012625767
  0.2581271687368749  0.4921802667476352  0.7485259828087186
  0.2526935840885939  0.2467552130377895  0.9868688379471452
  0.5096723733298368  0.2553006596659493  0.2510712467084919
  0.7325857615995922  0.9872801866830736  0.2629208933170640
  0.7488077383730131  0.2449202159249717  0.0032388304820835
  0.2461767917187199  0.7465366529797919 -0.0026621412381739
  0.2561501283979107  0.2492968611033768  0.5055078002564534
  0.2483910031080103  0.7520712543986677  0.5022965168960398
  0.2460202032153865  0.2472113692166550  0.2482171252024161
  0.2604242449303039  0.0026177310041357  0.9873502254447685
  0.0013974264563185  0.2521455102296355  0.0051016801905841
  0.7467915345437333  0.2393067161233194  0.2436221630175332
  0.7422758143504595  0.9949991032100258  0.0093274188073634
  0.5094058312052513  0.0087991625586099  0.2479873361791703
  0.9871523728172849  0.4861042806635119  0.2430425539989026
  0.5009678469766957  0.7624784862824897  0.0100577404639530
  0.9927216914633710 -0.0103999034961980  0.7439202177331352
  0.7657740745970766  0.2270071505066026  0.7485003520800678
  0.7455991801597811  0.0130280605151255  0.4922434482575263
  0.5031134029011713  0.2493209843777027  0.4868765844496732
  0.5061372658875548  0.0042673573988022  0.7456118333635433
  0.9940123511785277 -0.0017069424338913  0.2557827396187863
  0.5038768630821248  0.2418475040974629  0.0025097121089574
  0.2554643211205297  0.7487501754601065  0.2494246147210843
  0.2395294300500023  0.5000959763368982  0.9891498301670033
  0.0041670260569857  0.7401103126315837  0.0055385386902066
  0.7421510468499530  0.7472417545259402  0.2506277192865576
  0.7646949795224650  0.4957303839344979  0.0114275553749465
  0.4941407616635227  0.4998725305068066  0.2504815092707955
  0.2569069006474710  0.2504915739160527  0.7461834121338246
  0.2618308860917570  0.0008252052392783  0.5175631627583855
  0.0023320481904387  0.2455234100006113  0.5015252933054546
  0.2398599171817523  0.7519059678047199  0.7519018235047198
  0.2543130635699790  0.5013029118970190  0.5030322349111079
  0.0024046111981584  0.7565367782535246  0.5049516533250046
  0.0013070696904363  0.4862754464871194  0.7597196012077714
  0.7550072652568224  0.7736133000919878  0.7497306437959553
  0.7423475636747010  0.4942318189388576  0.5135986441375617
  0.4980298499234480  0.7631244624936566  0.4824179159029683
  0.4993491902826437  0.5050377410060407  0.7426048836741205
  0.5169498886431756  0.0156126161308723  0.9785291293932163
  0.9883544651861191  0.5188879293173048  0.9796823315089808
  0.4810520095044150  0.7263622142907602  0.2540456623456165
  0.2214343709060026  0.0273112335666525  0.7464602140460943
  0.4834148035455772  0.9854337220923058  0.5011926964641952
  0.7251336697634440  0.9982477173368661  0.7905395788673528
  0.0092306920698448  0.7700792103946245  0.2553311336585826
  0.7340881668114944  0.5141214701578518  0.2596549826453559
  0.0206588104523428  0.0022245714139869  0.5061548013599841
  0.5025448346799885  0.5210224042946011  0.4867069645286093
  0.7551538286449734  0.5253706283109095  0.7663128610839037
  0.7535058338822640  0.7398994013399383  0.5047822954035447
 
  0.00000000E+00  0.00000000E+00  0.00000000E+00
  0.00000000E+00  0.00000000E+00  0.00000000E+00
  0.00000000E+00  0.00000000E+00  0.00000000E+00
  0.00000000E+00  0.00000000E+00  0.00000000E+00
  0.00000000E+00  0.00000000E+00  0.00000000E+00
  0.00000000E+00  0.00000000E+00  0.00000000E+00
  0.00000000E+00  0.00000000E+00  0.00000000E+00
  0.00000000E+00  0.00000000E+00  0.00000000E+00
  0.00000000E+00  0.00000000E+00  0.00000000E+00
  0.00000000E+00  0.00000000E+00  0.00000000E+00
  0.00000000E+00  0.00000000E+00  0.00000000E+00
  0.00000000E+00  0.00000000E+00  0.00000000E+00
  0.00000000E+00  0.00000000E+00  0.00000000E+00
  0.00000000E+00  0.00000000E+00  0.00000000E+00
  0.00000000E+00  0.00000000E+00  0.00000000E+00
  0.00000000E+00  0.00000000E+00  0.00000000E+00
  0.00000000E+00  0.00000000E+00  0.00000000E+00
  0.00000000E+00  0.00000000E+00  0.00000000E+00
  0.00000000E+00  0.00000000E+00  0.00000000E+00
  0.00000000E+00  0.00000000E+00  0.00000000E+00
  0.00000000E+00  0.00000000E+00  0.00000000E+00
  0.00000000E+00  0.00000000E+00  0.00000000E+00
  0.00000000E+00  0.00000000E+00  0.00000000E+00
  0.00000000E+00  0.00000000E+00  0.00000000E+00
  0.00000000E+00  0.00000000E+00  0.00000000E+00
  0.00000000E+00  0.00000000E+00  0.00000000E+00
  0.00000000E+00  0.00000000E+00  0.00000000E+00
  0.00000000E+00  0.00000000E+00  0.00000000E+00
  0.00000000E+00  0.00000000E+00  0.00000000E+00
  0.00000000E+00  0.00000000E+00  0.00000000E+00
  0.00000000E+00  0.00000000E+00  0.00000000E+00
  0.00000000E+00  0.00000000E+00  0.00000000E+00
  0.00000000E+00  0.00000000E+00  0.00000000E+00
  0.00000000E+00  0.00000000E+00  0.00000000E+00
  0.00000000E+00  0.00000000E+00  0.00000000E+00
  0.00000000E+00  0.00000000E+00  0.00000000E+00
  0.00000000E+00  0.00000000E+00  0.00000000E+00
  0.00000000E+00  0.00000000E+00  0.00000000E+00
  0.00000000E+00  0.00000000E+00  0.00000000E+00
  0.00000000E+00  0.00000000E+00  0.00000000E+00
  0.00000000E+00  0.00000000E+00  0.00000000E+00
  0.00000000E+00  0.00000000E+00  0.00000000E+00
  0.00000000E+00  0.00000000E+00  0.00000000E+00
  0.00000000E+00  0.00000000E+00  0.00000000E+00
  0.00000000E+00  0.00000000E+00  0.00000000E+00
  0.00000000E+00  0.00000000E+00  0.00000000E+00
  0.00000000E+00  0.00000000E+00  0.00000000E+00
  0.00000000E+00  0.00000000E+00  0.00000000E+00
  0.00000000E+00  0.00000000E+00  0.00000000E+00
  0.00000000E+00  0.00000000E+00  0.00000000E+00
  0.00000000E+00  0.00000000E+00  0.00000000E+00
  0.00000000E+00  0.00000000E+00  0.00000000E+00
  0.00000000E+00  0.00000000E+00  0.00000000E+00
  0.00000000E+00  0.00000000E+00  0.00000000E+00
  0.00000000E+00  0.00000000E+00  0.00000000E+00
  0.00000000E+00  0.00000000E+00  0.00000000E+00
  0.00000000E+00  0.00000000E+00  0.00000000E+00
  0.00000000E+00  0.00000000E+00  0.00000000E+00
  0.00000000E+00  0.00000000E+00  0.00000000E+00
  0.00000000E+00  0.00000000E+00  0.00000000E+00
  0.00000000E+00  0.00000000E+00  0.00000000E+00
  0.00000000E+00  0.00000000E+00  0.00000000E+00
  0.00000000E+00  0.00000000E+00  0.00000000E+00
  0.00000000E+00  0.00000000E+00  0.00000000E+00
