113-TiHfCrMoW                           
   1.00000000000000     
     8.7100162260501577    0.0042795589208455    0.0024067390947965
     0.0101240377107428    8.7545392018475532    0.0017457974389469
     0.0336731319374324   -0.0134587342259701    8.7315046136331684
   Hf   W    Ti   N    C    Cr   Mo
     7     6     7    13    19     6     6
Direct
  0.0021004385056861  0.9987619859941725  0.9931218880596036
  0.2658430518801391  0.0012512468117325  0.2481374177989701
  0.2393854378296906  0.4945582525622123  0.2443897219412510
  0.5032448646948992  0.5016974581267061  0.0003889195365299
  0.5128978054838224  0.2455283380053411  0.7411368015921818
  0.9969403211834243  0.5013902482230180  0.5006900036867760
  0.4966797254378741  0.7620882228988360  0.7493369732806859
  0.9893863179549495  0.2288149417888577  0.2605734710455150
  0.7642215022107368  0.7442034965187325  0.0015707422083798
  0.0156053557204976  0.2428743382904756  0.7409099233735592
  0.7537347236403467  0.2560010380161624  0.4804731141404939
  0.9978200777253521  0.7352207225960257  0.7565098251422037
  0.2545911958089437  0.4939737674244249  0.7492538854048565
  0.2523767039740765  0.2462971012360389  0.9865985230356679
  0.5088213035205648  0.2555017956493463  0.2499467181237459
  0.7338342986478466  0.9900683390911360  0.2619748473808738
  0.7475883582505409  0.2463574012541934  0.0005689470744693
  0.2464772844098347  0.7483494917144168  0.9985596227211945
  0.2551889985477413  0.2495498390091130  0.5067702768181388
  0.2492631593080515  0.7522770867681732  0.5011546925295158
  0.2470416680374316  0.2475384230349578  0.2484467655862484
  0.2558187731022212  0.0023508272405079  0.9943769741112708
  0.0013101241001951  0.2492241244897480  0.0040115145654179
  0.7462878112760540  0.2407184879130263  0.2420742232818982
  0.7457439179930656  0.9957792814058956  0.0087159796068032
  0.5070093373898659  0.0070887064798914  0.2473187224344945
  0.9914379726865117  0.4872247135425721  0.2467288845853481
  0.5017222916483772  0.7596167436883260  0.0034092792102512
  0.9911486174107449  0.9916698498368356  0.7476584122043501
  0.7611991685460608  0.2292333793536100  0.7473221235094705
  0.7474055102498457  0.0119594176567040  0.4913146097855974
  0.5029868733149186  0.2485998588569999  0.4906858770582583
  0.5075800303583905  0.0034698284023684  0.7466766638929141
  0.9959094496207963  0.9992398306595360  0.2538215573275076
  0.5037362847704745  0.2438762355829905  0.0006054585644194
  0.2567364352892777  0.7492636582011168  0.2497616971927462
  0.2411654602887036  0.5002817656741877  0.9919860855031803
  0.0055772719636988  0.7433667436764065  0.0052609557411325
  0.7404491329782834  0.7471127731950296  0.2484006842416930
  0.7629895812334176  0.4955304590043710  0.0112191062096339
  0.4924481056840307  0.4992798425027593  0.2486585298868110
  0.2582830830789614  0.2490922736936399  0.7463577981383552
  0.2600449174421108  0.0010965515750154  0.5131673482761940
  0.0014475254843481  0.2481151394211115  0.5020867459519537
  0.2421404127777459  0.7545927635225635  0.7514125242223423
  0.2525304745262146  0.5012029314277026  0.5016045820358964
  0.0011452019058287  0.7555102904072266  0.5051247060539513
  0.0010474287150360  0.4875202672441754  0.7575625071597859
  0.7525222419208518  0.7703191818619505  0.7477200041108785
  0.7456125478238640  0.4948164103241959  0.5135523371121030
  0.4975360134718009  0.7627207184676963  0.4872438606623706
  0.5000547748931531  0.5040747684492177  0.7446052676639731
  0.5185825999032517  0.0135443627502229  0.9785197211791866
  0.9902127012212228  0.5197760195945966  0.9794613233512514
  0.4897136443458706  0.7268574233623748  0.2632036239435638
  0.2226468580292626  0.0217847177764357  0.7395508849462917
  0.4822173675857322  0.9889140338711345  0.5071299871040956
  0.7277587007918922  0.9926326523128179  0.7889448423044387
  0.0053219649763429  0.7702831276910289  0.2543002765282388
  0.7325111625878032  0.5092059832514038  0.2595590985113066
  0.0180746357168896  0.0026558358844682  0.5056374070339539
  0.5034715035740041  0.5155575528731260  0.4876827682669168
  0.7560827345158740  0.5248550484343913  0.7665676874829910
  0.7493371380345641  0.7376816344265599  0.4984844145659126
 
  0.00000000E+00  0.00000000E+00  0.00000000E+00
  0.00000000E+00  0.00000000E+00  0.00000000E+00
  0.00000000E+00  0.00000000E+00  0.00000000E+00
  0.00000000E+00  0.00000000E+00  0.00000000E+00
  0.00000000E+00  0.00000000E+00  0.00000000E+00
  0.00000000E+00  0.00000000E+00  0.00000000E+00
  0.00000000E+00  0.00000000E+00  0.00000000E+00
  0.00000000E+00  0.00000000E+00  0.00000000E+00
  0.00000000E+00  0.00000000E+00  0.00000000E+00
  0.00000000E+00  0.00000000E+00  0.00000000E+00
  0.00000000E+00  0.00000000E+00  0.00000000E+00
  0.00000000E+00  0.00000000E+00  0.00000000E+00
  0.00000000E+00  0.00000000E+00  0.00000000E+00
  0.00000000E+00  0.00000000E+00  0.00000000E+00
  0.00000000E+00  0.00000000E+00  0.00000000E+00
  0.00000000E+00  0.00000000E+00  0.00000000E+00
  0.00000000E+00  0.00000000E+00  0.00000000E+00
  0.00000000E+00  0.00000000E+00  0.00000000E+00
  0.00000000E+00  0.00000000E+00  0.00000000E+00
  0.00000000E+00  0.00000000E+00  0.00000000E+00
  0.00000000E+00  0.00000000E+00  0.00000000E+00
  0.00000000E+00  0.00000000E+00  0.00000000E+00
  0.00000000E+00  0.00000000E+00  0.00000000E+00
  0.00000000E+00  0.00000000E+00  0.00000000E+00
  0.00000000E+00  0.00000000E+00  0.00000000E+00
  0.00000000E+00  0.00000000E+00  0.00000000E+00
  0.00000000E+00  0.00000000E+00  0.00000000E+00
  0.00000000E+00  0.00000000E+00  0.00000000E+00
  0.00000000E+00  0.00000000E+00  0.00000000E+00
  0.00000000E+00  0.00000000E+00  0.00000000E+00
  0.00000000E+00  0.00000000E+00  0.00000000E+00
  0.00000000E+00  0.00000000E+00  0.00000000E+00
  0.00000000E+00  0.00000000E+00  0.00000000E+00
  0.00000000E+00  0.00000000E+00  0.00000000E+00
  0.00000000E+00  0.00000000E+00  0.00000000E+00
  0.00000000E+00  0.00000000E+00  0.00000000E+00
  0.00000000E+00  0.00000000E+00  0.00000000E+00
  0.00000000E+00  0.00000000E+00  0.00000000E+00
  0.00000000E+00  0.00000000E+00  0.00000000E+00
  0.00000000E+00  0.00000000E+00  0.00000000E+00
  0.00000000E+00  0.00000000E+00  0.00000000E+00
  0.00000000E+00  0.00000000E+00  0.00000000E+00
  0.00000000E+00  0.00000000E+00  0.00000000E+00
  0.00000000E+00  0.00000000E+00  0.00000000E+00
  0.00000000E+00  0.00000000E+00  0.00000000E+00
  0.00000000E+00  0.00000000E+00  0.00000000E+00
  0.00000000E+00  0.00000000E+00  0.00000000E+00
  0.00000000E+00  0.00000000E+00  0.00000000E+00
  0.00000000E+00  0.00000000E+00  0.00000000E+00
  0.00000000E+00  0.00000000E+00  0.00000000E+00
  0.00000000E+00  0.00000000E+00  0.00000000E+00
  0.00000000E+00  0.00000000E+00  0.00000000E+00
  0.00000000E+00  0.00000000E+00  0.00000000E+00
  0.00000000E+00  0.00000000E+00  0.00000000E+00
  0.00000000E+00  0.00000000E+00  0.00000000E+00
  0.00000000E+00  0.00000000E+00  0.00000000E+00
  0.00000000E+00  0.00000000E+00  0.00000000E+00
  0.00000000E+00  0.00000000E+00  0.00000000E+00
  0.00000000E+00  0.00000000E+00  0.00000000E+00
  0.00000000E+00  0.00000000E+00  0.00000000E+00
  0.00000000E+00  0.00000000E+00  0.00000000E+00
  0.00000000E+00  0.00000000E+00  0.00000000E+00
  0.00000000E+00  0.00000000E+00  0.00000000E+00
  0.00000000E+00  0.00000000E+00  0.00000000E+00
