34-TiVTaMoW                             
   1.00000000000000     
     8.6963949923689938   -0.0056883875506820    0.0305045325140737
    -0.0056029160183077    8.6786337087909331    0.0145283320619700
     0.0303212780668387    0.0143787779526598    8.6943041329675328
   Ti   Mo   V    N    C    Ta   W 
     7     6     7    13    19     6     6
Direct
 -0.0007025424829183  0.0096238530498998  0.0049409754160066
  0.2445742271784824  0.0094332342051926  0.2509082133999724
  0.2537268336975422  0.4900585229523746  0.2526172611019644
  0.4985328218592527  0.4991906219834276  0.0003738156345869
  0.4995966080534278  0.2549079154576700  0.7541032895460968
  0.0099212875810811  0.4996415176557120  0.5019263235874543
  0.4947354458012759  0.7468458960614530  0.7455090758790176
 -0.0142298640183609  0.2365221355724865  0.2639160658820928
  0.7736945278880820  0.7478314055753398 -0.0035142294142766
  0.0224467312997162  0.2629165936399770  0.7488215720326383
  0.7629118124674995  0.2681669036525447  0.4776097522527852
 -0.0004535305626718  0.7363745049355378  0.7510501055877101
  0.2568041546942862  0.4978400116156854  0.7486800236609562
  0.2666771302839716  0.2623010163880421 -0.0097057046841345
  0.5006062683817200  0.2599918645568697  0.2318198181209222
  0.7565668345574726 -0.0081519257611900  0.2195845042208238
  0.7254243052526692  0.2517080227994764  0.0031698328477619
  0.2352676886875132  0.7328088907254945  0.0087350120906929
  0.2438806059982530  0.2494971729357514  0.5159176303416410
  0.2517062657313371  0.7526285134263148  0.4902344027633941
  0.2498943079315106  0.2489941603367001  0.2493519596159355
  0.2514638679011609  0.0051164970936235  0.0004930519657794
 -0.0031993560637788  0.2479224996139659  0.0063067822978767
  0.7367886052733599  0.2309437734161653  0.2414692396128088
  0.7539438862384683  0.0058162409082437 -0.0033459601361736
  0.4999751954926107  0.0032735832624686  0.2493832314339071
  0.0002360097103845  0.5000342674893067  0.2532085021435884
  0.4929654021161887  0.7545681721120227 -0.0011722097575329
 -0.0014449736845132  0.0018488538692015  0.7531417730711173
  0.7472476947793296  0.2463233914979748  0.7527522786902874
  0.7483690270895046  0.0004823933623597  0.5063508473237942
  0.4997900855502994  0.2483727856773097  0.4991923851195724
  0.5010020115151183  0.0018875904846705  0.7496665193966116
 -0.0051549154381048  0.0005036212243001  0.2501214543302690
  0.4954538388953897  0.2566249197227661 -0.0027008810454914
  0.2485360841113659  0.7500651486857055  0.2482648307363142
  0.2500705811002786  0.4986770506035978  0.0038295938631290
  0.0100666615520887  0.7511141418755145  0.0040865755010633
  0.7515621910968083  0.7480780702348697  0.2492297078735765
  0.7456810760803338  0.4946926702880929  0.0061799025320134
  0.4947211612412187  0.4932050155348811  0.2493190603936482
  0.2601240732468259  0.2486849247375187  0.7527488696746089
  0.2516195419232001  0.0028915552026092  0.4939939074470100
  0.0038636265743939  0.2522408046858212  0.5072667496309814
  0.2501784641573654  0.7486436883808810  0.7535242118946226
  0.2508120014609897  0.4989260747647669  0.4981431042114909
  0.0035850991019724  0.7510106483795739  0.5021401835468946
 -0.0020919287590258  0.4978223063591077  0.7488944309672687
  0.7431383257078013  0.7500049231048173  0.7477827652332497
  0.7545219011920663  0.4995934073641181  0.5041867034794495
  0.4967285723864792  0.7510534428999721  0.5024119958273756
  0.5017648802209663  0.5012761026782464  0.7509037542256964
  0.4985685598335100  0.0066109621705014  0.0047916335977422
 -0.0013051879868714  0.4939364022819696  0.0016468220849257
  0.4953276267188422  0.7426708759759441  0.2517317181017691
  0.2455650529164480 -0.0037151168614162  0.7459733423347701
  0.4920365985171496  0.0002103651059567  0.4933668739514994
  0.7559585672269360 -0.0038926173350405  0.7554021029609176
  0.0058563083576708  0.7656630364168724  0.2556280086134349
  0.7392357803026114  0.4920837960817273  0.2485519934850529
  0.0167778135510571  0.0036231613968250  0.4953710139862592
  0.4921304078627449  0.5076860907345615  0.5015972315428432
  0.7436350363741971  0.5102234969570342  0.7660960299723277
  0.7523134962740712  0.7340708217958881  0.4960208399996641
 
  0.00000000E+00  0.00000000E+00  0.00000000E+00
  0.00000000E+00  0.00000000E+00  0.00000000E+00
  0.00000000E+00  0.00000000E+00  0.00000000E+00
  0.00000000E+00  0.00000000E+00  0.00000000E+00
  0.00000000E+00  0.00000000E+00  0.00000000E+00
  0.00000000E+00  0.00000000E+00  0.00000000E+00
  0.00000000E+00  0.00000000E+00  0.00000000E+00
  0.00000000E+00  0.00000000E+00  0.00000000E+00
  0.00000000E+00  0.00000000E+00  0.00000000E+00
  0.00000000E+00  0.00000000E+00  0.00000000E+00
  0.00000000E+00  0.00000000E+00  0.00000000E+00
  0.00000000E+00  0.00000000E+00  0.00000000E+00
  0.00000000E+00  0.00000000E+00  0.00000000E+00
  0.00000000E+00  0.00000000E+00  0.00000000E+00
  0.00000000E+00  0.00000000E+00  0.00000000E+00
  0.00000000E+00  0.00000000E+00  0.00000000E+00
  0.00000000E+00  0.00000000E+00  0.00000000E+00
  0.00000000E+00  0.00000000E+00  0.00000000E+00
  0.00000000E+00  0.00000000E+00  0.00000000E+00
  0.00000000E+00  0.00000000E+00  0.00000000E+00
  0.00000000E+00  0.00000000E+00  0.00000000E+00
  0.00000000E+00  0.00000000E+00  0.00000000E+00
  0.00000000E+00  0.00000000E+00  0.00000000E+00
  0.00000000E+00  0.00000000E+00  0.00000000E+00
  0.00000000E+00  0.00000000E+00  0.00000000E+00
  0.00000000E+00  0.00000000E+00  0.00000000E+00
  0.00000000E+00  0.00000000E+00  0.00000000E+00
  0.00000000E+00  0.00000000E+00  0.00000000E+00
  0.00000000E+00  0.00000000E+00  0.00000000E+00
  0.00000000E+00  0.00000000E+00  0.00000000E+00
  0.00000000E+00  0.00000000E+00  0.00000000E+00
  0.00000000E+00  0.00000000E+00  0.00000000E+00
  0.00000000E+00  0.00000000E+00  0.00000000E+00
  0.00000000E+00  0.00000000E+00  0.00000000E+00
  0.00000000E+00  0.00000000E+00  0.00000000E+00
  0.00000000E+00  0.00000000E+00  0.00000000E+00
  0.00000000E+00  0.00000000E+00  0.00000000E+00
  0.00000000E+00  0.00000000E+00  0.00000000E+00
  0.00000000E+00  0.00000000E+00  0.00000000E+00
  0.00000000E+00  0.00000000E+00  0.00000000E+00
  0.00000000E+00  0.00000000E+00  0.00000000E+00
  0.00000000E+00  0.00000000E+00  0.00000000E+00
  0.00000000E+00  0.00000000E+00  0.00000000E+00
  0.00000000E+00  0.00000000E+00  0.00000000E+00
  0.00000000E+00  0.00000000E+00  0.00000000E+00
  0.00000000E+00  0.00000000E+00  0.00000000E+00
  0.00000000E+00  0.00000000E+00  0.00000000E+00
  0.00000000E+00  0.00000000E+00  0.00000000E+00
  0.00000000E+00  0.00000000E+00  0.00000000E+00
  0.00000000E+00  0.00000000E+00  0.00000000E+00
  0.00000000E+00  0.00000000E+00  0.00000000E+00
  0.00000000E+00  0.00000000E+00  0.00000000E+00
  0.00000000E+00  0.00000000E+00  0.00000000E+00
  0.00000000E+00  0.00000000E+00  0.00000000E+00
  0.00000000E+00  0.00000000E+00  0.00000000E+00
  0.00000000E+00  0.00000000E+00  0.00000000E+00
  0.00000000E+00  0.00000000E+00  0.00000000E+00
  0.00000000E+00  0.00000000E+00  0.00000000E+00
  0.00000000E+00  0.00000000E+00  0.00000000E+00
  0.00000000E+00  0.00000000E+00  0.00000000E+00
  0.00000000E+00  0.00000000E+00  0.00000000E+00
  0.00000000E+00  0.00000000E+00  0.00000000E+00
  0.00000000E+00  0.00000000E+00  0.00000000E+00
  0.00000000E+00  0.00000000E+00  0.00000000E+00
