94-HfNbTaCrW                            
   1.00000000000000     
     8.8310839888662471   -0.0099265768649962   -0.0172900484120353
    -0.0042976456562952    8.8780120893034500   -0.0080902711285060
     0.0144466602921283   -0.0235472875466654    8.8744854549972860
   Nb   Ta   Hf   N    C    Cr   W 
     7     6     7    13    19     6     6
Direct
  0.0025145216138204  0.9857671725452343  0.9968370220557911
  0.2465798580281477  0.9900158079888671  0.2574056474945646
  0.2566032732443849  0.5125109615886360  0.2459525752979549
  0.5037223824300034  0.4883269564639260  0.9940961470389478
  0.4921266251816239  0.2495419830667388  0.7494823102027787
  0.0005424881959881  0.4988089917781195  0.5070692456212285
  0.5061993649652549  0.7552470826355029  0.7374026765172926
 -0.0018462139247439  0.2402257696489935  0.2564783128175175
  0.7512240444714067  0.7478648546782042  0.0025588080006787
  0.0079089396157055  0.2449237194068928  0.7440115306707147
  0.7509620010364562  0.2539475112617302  0.5113860765058901
  0.0023926586136803  0.7525568136320305  0.7513885969696313
  0.2499142206916740  0.5043797429406731  0.7531566940454396
  0.2461923487581265  0.2449680945532771 -0.0010917833204325
  0.4985130068195804  0.2441305436605814  0.2496494889505086
  0.7355163420222047  0.9892937653123661  0.2618572217713241
  0.7519233113996160  0.2444910827108077  0.9901377091988116
  0.2658899350306950  0.7578527713731560  0.0008349540978821
  0.2529645572619564  0.2511119116550504  0.5018440367700334
  0.2493142541114022  0.7523910487698344  0.5010527235516847
  0.2475186106390484  0.2514176095226919  0.2507072242912927
  0.2537346634214644  0.0009384028955992  0.0011337625392555
 -0.0010266046221676  0.2428736820442731  0.0035597956127127
  0.7498287253058756  0.2448312500260738  0.2525299975040391
  0.7434200499693915  0.9933107111046627  0.0017023460254338
  0.4951590854669634 -0.0005734917128437  0.2764031112335512
  0.9944068452253551  0.4904818603070165  0.2542930124908284
  0.5090956793659964  0.7578648599535237 -0.0100584046026258
  0.9847374671616882  0.0019359974283743  0.7430044295547085
  0.7534731770099079  0.2508913447761172  0.7476065882562095
  0.7614651445261739  0.0078327453958792  0.5023835617543154
  0.5050384489210569  0.2522004082452922  0.4986717475409518
  0.5285569337768796  0.0030622216872393  0.7350105401616581
  0.9935122367088280 -0.0002991414666199  0.2479048026329954
  0.4999492969623726  0.2420903191887781 -0.0024491450462143
  0.2609346058900231  0.7513852460453331  0.2509935309140552
  0.2426692974436875  0.5020678268752837  0.9989116927927728
  0.0040910377512557  0.7443118584541648  0.0037543860288135
  0.7450548485965770  0.7418714421827672  0.2486127387183607
  0.7635340266169416  0.4993272095942085  0.0048983798347162
  0.4964638560010076  0.5036571157626295  0.2454776306379049
  0.2502597840304562  0.2455872661478700  0.7509063622263745
  0.2515556513523211  0.0012731366339416  0.5152167473229636
 -0.0008693952807394  0.2501680971822829  0.5007532188601369
  0.2518463274227964  0.7587806546903409  0.7510180719912788
  0.2522284465997281  0.5017925774552715  0.5002792722222438
  0.9937529000335362  0.7549163170744640  0.4992858705114398
  0.9993239248242994  0.5001844713024046  0.7531574808437670
  0.7536332554264944  0.7548164509245436  0.7443686987472875
  0.7476502663059218  0.4952116314536940  0.5017082257216812
  0.5052853732519298  0.7668535727430361  0.4925070085372249
  0.5048145845387916  0.5003658258842765  0.7424134603917546
  0.5176887613950455  0.0197527041840266  0.9494401903479552
 -0.0045742095760313  0.5290912067944099  0.9700180147512433
  0.5076212302561179  0.7291051914550617  0.2805645487266946
  0.2197638103038576 -0.0026378738892828  0.7497662680013329
  0.4664884526449648  0.9947533916518728  0.5186131298404385
  0.7386750598387218  0.9696438558542632  0.7751484924268408
  0.0005859383752828  0.7669989708377140  0.2517266329650371
  0.7303057989171581  0.5092582976133175  0.2460782561336000
  0.0139629843200412  0.0065689920754635  0.4941632605127267
  0.4983711417408284  0.5135142656085858  0.4909222354802767
  0.7522272552892064  0.5153891327080873  0.7592818965223479
  0.7486276822839417  0.7287755506332950  0.4961010697813935
 
  0.00000000E+00  0.00000000E+00  0.00000000E+00
  0.00000000E+00  0.00000000E+00  0.00000000E+00
  0.00000000E+00  0.00000000E+00  0.00000000E+00
  0.00000000E+00  0.00000000E+00  0.00000000E+00
  0.00000000E+00  0.00000000E+00  0.00000000E+00
  0.00000000E+00  0.00000000E+00  0.00000000E+00
  0.00000000E+00  0.00000000E+00  0.00000000E+00
  0.00000000E+00  0.00000000E+00  0.00000000E+00
  0.00000000E+00  0.00000000E+00  0.00000000E+00
  0.00000000E+00  0.00000000E+00  0.00000000E+00
  0.00000000E+00  0.00000000E+00  0.00000000E+00
  0.00000000E+00  0.00000000E+00  0.00000000E+00
  0.00000000E+00  0.00000000E+00  0.00000000E+00
  0.00000000E+00  0.00000000E+00  0.00000000E+00
  0.00000000E+00  0.00000000E+00  0.00000000E+00
  0.00000000E+00  0.00000000E+00  0.00000000E+00
  0.00000000E+00  0.00000000E+00  0.00000000E+00
  0.00000000E+00  0.00000000E+00  0.00000000E+00
  0.00000000E+00  0.00000000E+00  0.00000000E+00
  0.00000000E+00  0.00000000E+00  0.00000000E+00
  0.00000000E+00  0.00000000E+00  0.00000000E+00
  0.00000000E+00  0.00000000E+00  0.00000000E+00
  0.00000000E+00  0.00000000E+00  0.00000000E+00
  0.00000000E+00  0.00000000E+00  0.00000000E+00
  0.00000000E+00  0.00000000E+00  0.00000000E+00
  0.00000000E+00  0.00000000E+00  0.00000000E+00
  0.00000000E+00  0.00000000E+00  0.00000000E+00
  0.00000000E+00  0.00000000E+00  0.00000000E+00
  0.00000000E+00  0.00000000E+00  0.00000000E+00
  0.00000000E+00  0.00000000E+00  0.00000000E+00
  0.00000000E+00  0.00000000E+00  0.00000000E+00
  0.00000000E+00  0.00000000E+00  0.00000000E+00
  0.00000000E+00  0.00000000E+00  0.00000000E+00
  0.00000000E+00  0.00000000E+00  0.00000000E+00
  0.00000000E+00  0.00000000E+00  0.00000000E+00
  0.00000000E+00  0.00000000E+00  0.00000000E+00
  0.00000000E+00  0.00000000E+00  0.00000000E+00
  0.00000000E+00  0.00000000E+00  0.00000000E+00
  0.00000000E+00  0.00000000E+00  0.00000000E+00
  0.00000000E+00  0.00000000E+00  0.00000000E+00
  0.00000000E+00  0.00000000E+00  0.00000000E+00
  0.00000000E+00  0.00000000E+00  0.00000000E+00
  0.00000000E+00  0.00000000E+00  0.00000000E+00
  0.00000000E+00  0.00000000E+00  0.00000000E+00
  0.00000000E+00  0.00000000E+00  0.00000000E+00
  0.00000000E+00  0.00000000E+00  0.00000000E+00
  0.00000000E+00  0.00000000E+00  0.00000000E+00
  0.00000000E+00  0.00000000E+00  0.00000000E+00
  0.00000000E+00  0.00000000E+00  0.00000000E+00
  0.00000000E+00  0.00000000E+00  0.00000000E+00
  0.00000000E+00  0.00000000E+00  0.00000000E+00
  0.00000000E+00  0.00000000E+00  0.00000000E+00
  0.00000000E+00  0.00000000E+00  0.00000000E+00
  0.00000000E+00  0.00000000E+00  0.00000000E+00
  0.00000000E+00  0.00000000E+00  0.00000000E+00
  0.00000000E+00  0.00000000E+00  0.00000000E+00
  0.00000000E+00  0.00000000E+00  0.00000000E+00
  0.00000000E+00  0.00000000E+00  0.00000000E+00
  0.00000000E+00  0.00000000E+00  0.00000000E+00
  0.00000000E+00  0.00000000E+00  0.00000000E+00
  0.00000000E+00  0.00000000E+00  0.00000000E+00
  0.00000000E+00  0.00000000E+00  0.00000000E+00
  0.00000000E+00  0.00000000E+00  0.00000000E+00
  0.00000000E+00  0.00000000E+00  0.00000000E+00
