73-TiVTaCrMo                            
   1.00000000000000     
     8.5620351240706096   -0.0114205304316905    0.0019754777032269
    -0.0058083374279904    8.5801318582499881    0.0140937807045031
     0.0327529461440752   -0.0010543335948572    8.6226325398066699
   V    Ta   Ti   N    C    Cr   Mo
     7     6     7    13    19     6     6
Direct
  0.0131029764515342  0.9835750419109731  0.0204267616803586
  0.2404412079578100  0.9825154504613294  0.2470674053965193
  0.2645740547688743  0.5139365089829241  0.2457931840381316
  0.4977852637774067  0.4797810587230542  0.9956046540305240
  0.4839233860679149  0.2398481917405675  0.7569236454635847
  0.0037650719762973  0.4975388028432177  0.5236116254767876
  0.5034782913727608  0.7544488928757341  0.7326623033485775
  0.0034729424898335  0.2620965025854733  0.2484002960316715
  0.7400581475728517  0.7504032361980347  0.0014765157066680
  0.0081293346902973  0.2390608587508239  0.7523682294271706
  0.7464170838848727  0.2482706857309013  0.5079041293842586
  0.0027632441915524  0.7591029079793220  0.7483572241319545
  0.2561034764987204  0.5015918551541131  0.7523768754162198
  0.2512366838204148  0.2453614724645440  0.0002884978118595
  0.4926281352646910  0.2416475243885075  0.2444367132928296
  0.7379469013593906  0.9923544042456053  0.2513178438209085
  0.7471365424632257  0.2471494328092589  0.9956058810561029
  0.2645087427987343  0.7543614210680526  0.0003490079998335
  0.2520773772200834  0.2503493072687323  0.4985197638260813
  0.2511160546346872  0.7505045450688492  0.4967510760273940
  0.2503980156810450  0.2503295050044297  0.2481458337295469
  0.2538539728782715  0.0002785536532885 -0.0011591349001521
  0.0001617456009257  0.2440499583002203  0.0013755589083873
  0.7455659915121546  0.2430107821335650  0.2491610400608963
  0.7521794258793146  0.0014094055602168  0.0035810250462899
  0.4976143743331666  0.0028133819261347  0.2335953952635191
  0.0039085121589550  0.4985466764654760  0.2457044154668952
  0.5006710133543910  0.7544530663360338 -0.0069751213556273
  0.0049495672964375  0.0010250553354515  0.7563175919630024
  0.7470572491596690  0.2368517490149634  0.7514186874643537
  0.7456795577537334  0.0041003815770446  0.4944525410682494
  0.4984714865764476  0.2445153753899635  0.4996492246067261
  0.5001278376896310 -0.0007010830468874  0.7519936871317244
 -0.0021923828758844  0.0035777669815682  0.2449776174762863
  0.4991675467769743  0.2498394575965259 -0.0035232660522624
  0.2641244058482375  0.7512965892046158  0.2484386692705716
  0.2489071271567269  0.5008186133390268  0.0048513780572730
  0.0061727708936224  0.7496527094964971  0.0007651858510092
  0.7426403071964572  0.7493460759803294  0.2487565494518579
  0.7564671661137667  0.4961220964960398  0.0029943982919538
  0.4894728894792693  0.5015276531177786  0.2416123579038489
  0.2549714152312029  0.2446617228967628  0.7504872977605141
  0.2549762261344394  0.0002655578014000  0.4967053714759865
  0.0022773217762444  0.2545926920503232  0.5003105067104660
  0.2585569707440145  0.7584463695040804  0.7483825101611061
  0.2463654476964475  0.5009604041666718  0.4934018846354228
  0.0031970917840796  0.7464933871535352  0.4989234064432111
  0.0006926621913393  0.5007223315910210  0.7522880755758476
  0.7450525278184345  0.7650116997597314  0.7450717644967746
  0.7585898839463090  0.4957946977648492  0.4983437760734022
  0.4994026159256200  0.7689744389493918  0.4943440022818282
  0.5034225416461461  0.4981910073328226  0.7518018829122055
  0.5070283090458679  0.0224257308199706 -0.0010196365390608
  0.0055630724364703  0.5225010317486817  0.9749557271994991
  0.4997488352726903  0.7315112588113849  0.2742875495798544
  0.2627071001270251  0.0043347046458107  0.7422352354354411
  0.4726596701277461 -0.0027102525600753  0.5295418258593059
  0.7168133443467937  0.9869377511833405  0.7846852483091433
  0.0075066660594263  0.7559793018751642  0.2516524382942935
  0.7251907607488773  0.5051084370414721  0.2466178071437005
  0.0138840021409374  0.0030923893914055  0.4815581533597798
  0.5001440907042860  0.5112104271572281  0.4964720444021633
  0.7452680418664004  0.5135779571712915  0.7565835723078630
  0.7499182785039176  0.7351548336314407  0.4959944240494817
 
  0.00000000E+00  0.00000000E+00  0.00000000E+00
  0.00000000E+00  0.00000000E+00  0.00000000E+00
  0.00000000E+00  0.00000000E+00  0.00000000E+00
  0.00000000E+00  0.00000000E+00  0.00000000E+00
  0.00000000E+00  0.00000000E+00  0.00000000E+00
  0.00000000E+00  0.00000000E+00  0.00000000E+00
  0.00000000E+00  0.00000000E+00  0.00000000E+00
  0.00000000E+00  0.00000000E+00  0.00000000E+00
  0.00000000E+00  0.00000000E+00  0.00000000E+00
  0.00000000E+00  0.00000000E+00  0.00000000E+00
  0.00000000E+00  0.00000000E+00  0.00000000E+00
  0.00000000E+00  0.00000000E+00  0.00000000E+00
  0.00000000E+00  0.00000000E+00  0.00000000E+00
  0.00000000E+00  0.00000000E+00  0.00000000E+00
  0.00000000E+00  0.00000000E+00  0.00000000E+00
  0.00000000E+00  0.00000000E+00  0.00000000E+00
  0.00000000E+00  0.00000000E+00  0.00000000E+00
  0.00000000E+00  0.00000000E+00  0.00000000E+00
  0.00000000E+00  0.00000000E+00  0.00000000E+00
  0.00000000E+00  0.00000000E+00  0.00000000E+00
  0.00000000E+00  0.00000000E+00  0.00000000E+00
  0.00000000E+00  0.00000000E+00  0.00000000E+00
  0.00000000E+00  0.00000000E+00  0.00000000E+00
  0.00000000E+00  0.00000000E+00  0.00000000E+00
  0.00000000E+00  0.00000000E+00  0.00000000E+00
  0.00000000E+00  0.00000000E+00  0.00000000E+00
  0.00000000E+00  0.00000000E+00  0.00000000E+00
  0.00000000E+00  0.00000000E+00  0.00000000E+00
  0.00000000E+00  0.00000000E+00  0.00000000E+00
  0.00000000E+00  0.00000000E+00  0.00000000E+00
  0.00000000E+00  0.00000000E+00  0.00000000E+00
  0.00000000E+00  0.00000000E+00  0.00000000E+00
  0.00000000E+00  0.00000000E+00  0.00000000E+00
  0.00000000E+00  0.00000000E+00  0.00000000E+00
  0.00000000E+00  0.00000000E+00  0.00000000E+00
  0.00000000E+00  0.00000000E+00  0.00000000E+00
  0.00000000E+00  0.00000000E+00  0.00000000E+00
  0.00000000E+00  0.00000000E+00  0.00000000E+00
  0.00000000E+00  0.00000000E+00  0.00000000E+00
  0.00000000E+00  0.00000000E+00  0.00000000E+00
  0.00000000E+00  0.00000000E+00  0.00000000E+00
  0.00000000E+00  0.00000000E+00  0.00000000E+00
  0.00000000E+00  0.00000000E+00  0.00000000E+00
  0.00000000E+00  0.00000000E+00  0.00000000E+00
  0.00000000E+00  0.00000000E+00  0.00000000E+00
  0.00000000E+00  0.00000000E+00  0.00000000E+00
  0.00000000E+00  0.00000000E+00  0.00000000E+00
  0.00000000E+00  0.00000000E+00  0.00000000E+00
  0.00000000E+00  0.00000000E+00  0.00000000E+00
  0.00000000E+00  0.00000000E+00  0.00000000E+00
  0.00000000E+00  0.00000000E+00  0.00000000E+00
  0.00000000E+00  0.00000000E+00  0.00000000E+00
  0.00000000E+00  0.00000000E+00  0.00000000E+00
  0.00000000E+00  0.00000000E+00  0.00000000E+00
  0.00000000E+00  0.00000000E+00  0.00000000E+00
  0.00000000E+00  0.00000000E+00  0.00000000E+00
  0.00000000E+00  0.00000000E+00  0.00000000E+00
  0.00000000E+00  0.00000000E+00  0.00000000E+00
  0.00000000E+00  0.00000000E+00  0.00000000E+00
  0.00000000E+00  0.00000000E+00  0.00000000E+00
  0.00000000E+00  0.00000000E+00  0.00000000E+00
  0.00000000E+00  0.00000000E+00  0.00000000E+00
  0.00000000E+00  0.00000000E+00  0.00000000E+00
  0.00000000E+00  0.00000000E+00  0.00000000E+00
