109-ZrHfNbTaCr                          
   1.00000000000000     
     8.9632213538440446    0.0133251937174827   -0.0132912589967040
     0.0193087246920217    8.9922792542100431   -0.0233065072791340
     0.0189390159313045   -0.0386587424197508    8.9861357800646644
   Hf   Nb   Zr   N    C    Cr   Ta
     7     6     7    13    19     6     6
Direct
  0.9978865958382386  0.9935341282458481  0.9937831588792179
  0.2624654465855087  0.9965890103801200  0.2552829829504404
  0.2437370003935229  0.5000443194851769  0.2453287682765009
  0.4987161878928816  0.5008539566281414  0.9976503844935962
  0.5045428060552197  0.2445527523730391  0.7428051838074836
  0.9991741206440423  0.5004748179102165  0.5046956385571875
  0.4986357959459298  0.7578814812458532  0.7468192084013978
  0.9939087244105522  0.2354815679208286  0.2611947627753963
  0.7497889767373707  0.7472807204724816  0.0021351509836620
  0.0030106564415036  0.2469430056977231  0.7395962550409010
  0.7562343958424051  0.2558919304574800  0.4998886354737095
  0.0009963862455891  0.7488223276082664  0.7542960797307572
  0.2460672302585678  0.4949490040561386  0.7538763900704453
  0.2474062052450563  0.2418560242693246  0.9955433309420414
  0.5041482037366976  0.2531656378045071  0.2510554887622050
  0.7357262883031694  0.9928696199599329  0.2550198131100530
  0.7538552574703985  0.2510740194113765  0.9938106859755109
  0.2569760646164738  0.7568513420194307  0.9993671693515793
  0.2518559901204824  0.2492784171085205  0.5020231029413083
  0.2493366897628846  0.7505592275306583  0.5025259121008290
  0.2473577058971159  0.2473011208657780  0.2482891788653134
  0.2458017481768096  0.0006199572086985  0.0062709640015655
  0.0007397495599264  0.2420851881806882  0.9999716505273639
  0.7535130728831234  0.2519535081284374  0.2505817388797809
  0.7457782887824322  0.9964599496316211  0.9944596016922773
  0.4967922094175634  0.9974267381469701  0.2795001446529781
  0.9951273935157445  0.4977528062194168  0.2483444459937658
  0.5067519189671685  0.7609280261813396  0.9963088370225677
  0.9863997927331241  0.0018922286256569  0.7473056155478872
  0.7525774375391237  0.2577819481680947  0.7440607359403444
  0.7562675538447579  0.0015484386815316  0.5082254138669384
  0.5064044429002692  0.2508065706437606  0.5019448088811984
  0.5308994408071896  0.9993372597336432  0.7373473732663314
  0.9985431185230453  0.9967889225601994  0.2518736588223547
  0.5029097316574891  0.2389432903043271  0.9942377577692767
  0.2510499372728390  0.7487562996438797  0.2502019825802364
  0.2424082065782400  0.5013322990559033  0.9971545887731992
  0.9984895632012041  0.7457142030062514  0.0018992661728063
  0.7449290529819805  0.7449487232649830  0.2513213972915125
  0.7592401778039815  0.5042819690707816  0.0003765402222271
  0.5025813803532273  0.5052084742244105  0.2513106263444129
  0.2494252426077850  0.2435414807319844  0.7489099838631645
  0.2523771840516673  0.9995870744071595  0.5118172255000744
  0.9991262969835191  0.2484525607758030  0.5013453969883983
  0.2447516535029237  0.7590912110800261  0.7516778803702522
  0.2531505939247438  0.4997883826637093  0.4983674931495301
  0.9932208977024146  0.7534511052188080  0.5007979396653184
  0.9983296342278933  0.4994669728736127  0.7572539950352279
  0.7510216993095540  0.7526188217054397  0.7513734829397407
  0.7479393476472254  0.5029486037103936  0.4986493392095284
  0.5023567142979530  0.7601519512493198  0.4940038859553297
  0.5031635171732560  0.5010230033845033  0.7452171822770737
  0.5262142220972166  0.0111709171599728  0.9533012319792888
  0.0041175246681817  0.5243014834677808  0.9810886399060550
  0.5024051842304402  0.7343480280424046  0.2663825749507183
  0.2249738067827778  0.0090113965828138  0.7348687376648471
  0.4736895761787636  0.9854925236741252  0.5236392093122575
  0.7419086017492447  0.9663267407953526  0.7721663953257121
  0.0004431889852086  0.7586561398491298  0.2503098210890684
  0.7489355154633301  0.5062848107893316  0.2483916436924076
  0.0034857596024693  0.0020807989416625  0.5052941496117072
  0.4990801657194979  0.5105414335885996  0.4982267044575011
  0.7518575045103049  0.5116377003372108  0.7525563847395773
  0.7489955986407608  0.7492053778394521  0.4966764085786721
 
  0.00000000E+00  0.00000000E+00  0.00000000E+00
  0.00000000E+00  0.00000000E+00  0.00000000E+00
  0.00000000E+00  0.00000000E+00  0.00000000E+00
  0.00000000E+00  0.00000000E+00  0.00000000E+00
  0.00000000E+00  0.00000000E+00  0.00000000E+00
  0.00000000E+00  0.00000000E+00  0.00000000E+00
  0.00000000E+00  0.00000000E+00  0.00000000E+00
  0.00000000E+00  0.00000000E+00  0.00000000E+00
  0.00000000E+00  0.00000000E+00  0.00000000E+00
  0.00000000E+00  0.00000000E+00  0.00000000E+00
  0.00000000E+00  0.00000000E+00  0.00000000E+00
  0.00000000E+00  0.00000000E+00  0.00000000E+00
  0.00000000E+00  0.00000000E+00  0.00000000E+00
  0.00000000E+00  0.00000000E+00  0.00000000E+00
  0.00000000E+00  0.00000000E+00  0.00000000E+00
  0.00000000E+00  0.00000000E+00  0.00000000E+00
  0.00000000E+00  0.00000000E+00  0.00000000E+00
  0.00000000E+00  0.00000000E+00  0.00000000E+00
  0.00000000E+00  0.00000000E+00  0.00000000E+00
  0.00000000E+00  0.00000000E+00  0.00000000E+00
  0.00000000E+00  0.00000000E+00  0.00000000E+00
  0.00000000E+00  0.00000000E+00  0.00000000E+00
  0.00000000E+00  0.00000000E+00  0.00000000E+00
  0.00000000E+00  0.00000000E+00  0.00000000E+00
  0.00000000E+00  0.00000000E+00  0.00000000E+00
  0.00000000E+00  0.00000000E+00  0.00000000E+00
  0.00000000E+00  0.00000000E+00  0.00000000E+00
  0.00000000E+00  0.00000000E+00  0.00000000E+00
  0.00000000E+00  0.00000000E+00  0.00000000E+00
  0.00000000E+00  0.00000000E+00  0.00000000E+00
  0.00000000E+00  0.00000000E+00  0.00000000E+00
  0.00000000E+00  0.00000000E+00  0.00000000E+00
  0.00000000E+00  0.00000000E+00  0.00000000E+00
  0.00000000E+00  0.00000000E+00  0.00000000E+00
  0.00000000E+00  0.00000000E+00  0.00000000E+00
  0.00000000E+00  0.00000000E+00  0.00000000E+00
  0.00000000E+00  0.00000000E+00  0.00000000E+00
  0.00000000E+00  0.00000000E+00  0.00000000E+00
  0.00000000E+00  0.00000000E+00  0.00000000E+00
  0.00000000E+00  0.00000000E+00  0.00000000E+00
  0.00000000E+00  0.00000000E+00  0.00000000E+00
  0.00000000E+00  0.00000000E+00  0.00000000E+00
  0.00000000E+00  0.00000000E+00  0.00000000E+00
  0.00000000E+00  0.00000000E+00  0.00000000E+00
  0.00000000E+00  0.00000000E+00  0.00000000E+00
  0.00000000E+00  0.00000000E+00  0.00000000E+00
  0.00000000E+00  0.00000000E+00  0.00000000E+00
  0.00000000E+00  0.00000000E+00  0.00000000E+00
  0.00000000E+00  0.00000000E+00  0.00000000E+00
  0.00000000E+00  0.00000000E+00  0.00000000E+00
  0.00000000E+00  0.00000000E+00  0.00000000E+00
  0.00000000E+00  0.00000000E+00  0.00000000E+00
  0.00000000E+00  0.00000000E+00  0.00000000E+00
  0.00000000E+00  0.00000000E+00  0.00000000E+00
  0.00000000E+00  0.00000000E+00  0.00000000E+00
  0.00000000E+00  0.00000000E+00  0.00000000E+00
  0.00000000E+00  0.00000000E+00  0.00000000E+00
  0.00000000E+00  0.00000000E+00  0.00000000E+00
  0.00000000E+00  0.00000000E+00  0.00000000E+00
  0.00000000E+00  0.00000000E+00  0.00000000E+00
  0.00000000E+00  0.00000000E+00  0.00000000E+00
  0.00000000E+00  0.00000000E+00  0.00000000E+00
  0.00000000E+00  0.00000000E+00  0.00000000E+00
  0.00000000E+00  0.00000000E+00  0.00000000E+00
