Mo
1.0
        3.1468999386         0.0000000000         0.0000000000
        0.0000000000         3.1468999386         0.0000000000
        0.0000000000         0.0000000000         3.1468999386
   Mo
    2
Direct
     0.000000000         0.000000000         0.000000000
     0.500000000         0.500000000         0.500000000
