59-TiZrVCrMo                            
   1.00000000000000     
     8.6693739605852791    0.0039725635227342   -0.0031870028633619
     0.0096942909192078    8.7370455497317359   -0.0190380824709999
     0.0279602391438130   -0.0340228632165172    8.6627936479735066
   Zr   V    Ti   N    C    Cr   Mo
     7     6     7    13    19     6     6
Direct
  0.9988348243957812  0.0013603123486548  0.9937190514516732
  0.2664509163782448  0.0018757031081332  0.2490881696259138
  0.2377156202013487  0.4931555720167405  0.2457504120176894
  0.4996833528690182  0.4988653034455063 -0.0005562604589956
  0.5172378173103873  0.2458156770800710  0.7369118249728220
 -0.0046390127821842  0.4994005433106376  0.5013379957357658
  0.4924128232724116  0.7586869896351984  0.7562587766525217
  0.9881017739376011  0.2257324886074320  0.2621086601501388
  0.7710463599286559  0.7358075522869176  0.0082187175507219
 -0.0006988317563211  0.2580328261532351  0.7453332010004388
  0.7652649067947102  0.2277563591465309  0.4826172391402432
  0.0017338310212241  0.7339401929079048  0.7576033968730923
  0.2470897847211779  0.4825582000973657  0.7496006229286306
  0.2500457076217609  0.2447470965091347  0.9898434417186546
  0.5128112062791866  0.2563661638020874  0.2553730818887647
  0.7363457522672625  0.9919944893507461  0.2512513735968205
  0.7583231579451150  0.2583454620313096  0.0049854251307859
  0.2418019230315463  0.7463553781398988  0.9964520322534604
  0.2495204487825089  0.2482417712202472  0.5030293562162579
  0.2443929028741735  0.7525699541685590  0.5088218568751747
  0.2490886131379196  0.2471303214397942  0.2495185827538773
  0.2589121195601990  0.0022108354980071  0.9876564467282933
  0.0025035744895179  0.2576735714345842  0.0018417080209078
  0.7535868370990588  0.2459416272893983  0.2501917676775487
  0.7440248077929270  0.9977024873947347  0.0040312543042141
  0.5118772558554171  0.0062716784505687  0.2496504860669603
  0.9870973823109604  0.4927653396075253  0.2423488317144320
  0.4961902308878726  0.7632345339319070  0.0114595869341922
  0.9825409496347260  0.0139746959324622  0.7419111849404421
  0.7663871990766145  0.2549710545800087  0.7505170764425494
  0.7440402647114712  0.0116591633691936  0.4987271895797750
  0.5049356537979853  0.2484616640750877  0.4871555197332567
  0.5319463377554128  0.0002233113259640  0.7464285148079086
  0.9950738441558755  0.0034849105763583  0.2535048407781710
  0.5059113548029684  0.2381514226755390  0.0014574395120381
  0.2526691717348888  0.7486846904066240  0.2504638334812245
  0.2392377106035264  0.4976651379233133  0.9874691085390624
 -0.0009164685100056  0.7368556705980931  0.0013964878972983
  0.7400310463896649  0.7506644197504307  0.2456460280855047
  0.7640158726796287  0.5025726418366225  0.0052675808046186
  0.4950860567989734  0.5001299883432768  0.2525864495045799
  0.2447282135037047  0.2484593932916251  0.7468484354584018
  0.2590537850340350  0.0020292835094422  0.5175286124320124
 -0.0002292335703211  0.2463655864366727  0.5009912143087348
  0.2337027938091404  0.7553851053736387  0.7532620243053296
  0.2532779058110935  0.4996657439340196  0.5080982683062226
 -0.0007789846148564  0.7572719444322839  0.5107890253944324
  0.0053544801914972  0.5011704081671562  0.7560999290096576
  0.7577814682446307  0.7547324343580860  0.7586478907607527
  0.7424389583864033  0.4964282128820063  0.5048314285470853
  0.4950134936881673  0.7627819419571784  0.4861187538148265
  0.4960681710381062  0.5021946124256641  0.7426583697420819
  0.5227150491656014  0.0118700625561907  0.9762609445441166
  0.9974942870886865  0.5004905285611044  0.9789214929487640
  0.4822507475849795  0.7285620040817037  0.2491919028692405
  0.2116950066331277  0.0213147858552571  0.7399306251635752
  0.4900745078217088  0.9822864836220357  0.5145375050715422
  0.7489824419016675  0.9651810588606744  0.7836962681332645
  0.0053195494786922  0.7684974198717802  0.2555048207103233
  0.7371824036061480  0.5138248033868306  0.2588658517652913
  0.0106758812981230  0.0031962120099363  0.5009503203807687
  0.5024124531932295  0.5228588223939752  0.4932372639846085
  0.7528043901520722  0.5169676167378853  0.7527525876800003
  0.7542675266951532  0.7564280844890522  0.4932983070415493
 
  0.00000000E+00  0.00000000E+00  0.00000000E+00
  0.00000000E+00  0.00000000E+00  0.00000000E+00
  0.00000000E+00  0.00000000E+00  0.00000000E+00
  0.00000000E+00  0.00000000E+00  0.00000000E+00
  0.00000000E+00  0.00000000E+00  0.00000000E+00
  0.00000000E+00  0.00000000E+00  0.00000000E+00
  0.00000000E+00  0.00000000E+00  0.00000000E+00
  0.00000000E+00  0.00000000E+00  0.00000000E+00
  0.00000000E+00  0.00000000E+00  0.00000000E+00
  0.00000000E+00  0.00000000E+00  0.00000000E+00
  0.00000000E+00  0.00000000E+00  0.00000000E+00
  0.00000000E+00  0.00000000E+00  0.00000000E+00
  0.00000000E+00  0.00000000E+00  0.00000000E+00
  0.00000000E+00  0.00000000E+00  0.00000000E+00
  0.00000000E+00  0.00000000E+00  0.00000000E+00
  0.00000000E+00  0.00000000E+00  0.00000000E+00
  0.00000000E+00  0.00000000E+00  0.00000000E+00
  0.00000000E+00  0.00000000E+00  0.00000000E+00
  0.00000000E+00  0.00000000E+00  0.00000000E+00
  0.00000000E+00  0.00000000E+00  0.00000000E+00
  0.00000000E+00  0.00000000E+00  0.00000000E+00
  0.00000000E+00  0.00000000E+00  0.00000000E+00
  0.00000000E+00  0.00000000E+00  0.00000000E+00
  0.00000000E+00  0.00000000E+00  0.00000000E+00
  0.00000000E+00  0.00000000E+00  0.00000000E+00
  0.00000000E+00  0.00000000E+00  0.00000000E+00
  0.00000000E+00  0.00000000E+00  0.00000000E+00
  0.00000000E+00  0.00000000E+00  0.00000000E+00
  0.00000000E+00  0.00000000E+00  0.00000000E+00
  0.00000000E+00  0.00000000E+00  0.00000000E+00
  0.00000000E+00  0.00000000E+00  0.00000000E+00
  0.00000000E+00  0.00000000E+00  0.00000000E+00
  0.00000000E+00  0.00000000E+00  0.00000000E+00
  0.00000000E+00  0.00000000E+00  0.00000000E+00
  0.00000000E+00  0.00000000E+00  0.00000000E+00
  0.00000000E+00  0.00000000E+00  0.00000000E+00
  0.00000000E+00  0.00000000E+00  0.00000000E+00
  0.00000000E+00  0.00000000E+00  0.00000000E+00
  0.00000000E+00  0.00000000E+00  0.00000000E+00
  0.00000000E+00  0.00000000E+00  0.00000000E+00
  0.00000000E+00  0.00000000E+00  0.00000000E+00
  0.00000000E+00  0.00000000E+00  0.00000000E+00
  0.00000000E+00  0.00000000E+00  0.00000000E+00
  0.00000000E+00  0.00000000E+00  0.00000000E+00
  0.00000000E+00  0.00000000E+00  0.00000000E+00
  0.00000000E+00  0.00000000E+00  0.00000000E+00
  0.00000000E+00  0.00000000E+00  0.00000000E+00
  0.00000000E+00  0.00000000E+00  0.00000000E+00
  0.00000000E+00  0.00000000E+00  0.00000000E+00
  0.00000000E+00  0.00000000E+00  0.00000000E+00
  0.00000000E+00  0.00000000E+00  0.00000000E+00
  0.00000000E+00  0.00000000E+00  0.00000000E+00
  0.00000000E+00  0.00000000E+00  0.00000000E+00
  0.00000000E+00  0.00000000E+00  0.00000000E+00
  0.00000000E+00  0.00000000E+00  0.00000000E+00
  0.00000000E+00  0.00000000E+00  0.00000000E+00
  0.00000000E+00  0.00000000E+00  0.00000000E+00
  0.00000000E+00  0.00000000E+00  0.00000000E+00
  0.00000000E+00  0.00000000E+00  0.00000000E+00
  0.00000000E+00  0.00000000E+00  0.00000000E+00
  0.00000000E+00  0.00000000E+00  0.00000000E+00
  0.00000000E+00  0.00000000E+00  0.00000000E+00
  0.00000000E+00  0.00000000E+00  0.00000000E+00
  0.00000000E+00  0.00000000E+00  0.00000000E+00
