59-TiZrVCrMo                            
   1.00000000000000     
     8.6332378082215318    0.0023406963110462   -0.0069675680627319
     0.0079332096036680    8.7685210982232640   -0.0030222186644247
     0.0240510016543561   -0.0182142066619394    8.6426779553566710
   Zr   V    Ti   N    C    Cr   Mo
     7     6     7    13    19     6     6
Direct
  0.9958112534723851  0.9940011279402273  0.9964117188143001
  0.2578201209345716 -0.0013223709237807  0.2472977865429164
  0.2471025687724600  0.5002789481571071  0.2483552800388748
  0.5039154829893040  0.4986305229073695  0.9989909284835075
  0.5054976324451973  0.2437151396856355  0.7455653199727830
  0.9958608482546318  0.5022449208630277  0.4985110612448520
  0.4972154622494765  0.7586423862864478  0.7507160048844980
  0.9928322716241205  0.2342460576728602  0.2651174051656932
  0.7582270119446339  0.7405065230656444  0.0115230421669575
  0.0026876865983062  0.2555921165945080  0.7378421476660559
  0.7535852128052967  0.2606119149952482  0.5048046906253134
  0.9961028594947965  0.7442204858142724  0.7459903703989490
  0.2560113961759671  0.4939628835138459  0.7462188612999623
  0.2470867825169994  0.2488059992593271  0.9955655313597025
  0.5098629560798758  0.2548467582546508  0.2542156067121196
  0.7460774124419840  0.9896272353348970  0.2703390945690870
  0.7577272406140805  0.2559888010326057  0.9956771523955820
  0.2469610860074165  0.7490882392015297  0.9989276018338007
  0.2528023302289046  0.2481982749636839  0.5010957724119872
  0.2448333209080248  0.7507329335419539  0.5008924320832997
  0.2503476785724022  0.2493430483993971  0.2485933392434499
  0.2607426045981868  0.0000924824565959  0.9923814052844109
  0.0025910968720582  0.2503044122286677  0.0008164729116541
  0.7530043187322724  0.2457098540666818  0.2550885645091876
  0.7460413010721277  0.9974219259932224  0.0100817257568663
  0.5084421623999502  0.9996272346846319  0.2479477339707795
  0.9908690385041352  0.4806787417179654  0.2415175721062380
  0.5051899596446452  0.7610877371443122  0.0081987674262292
  0.9893634206219668  0.0020272660156945  0.7385517114384511
  0.7584284126616959  0.2443185111883261  0.7491862301732353
  0.7365749907781295  0.0040448442468596  0.5085920652214174
  0.5050549649592241  0.2330099721735887  0.4941625560023840
  0.5011079371127275  0.0004478817392701  0.7362698615237314
  0.9955958260771458  0.0008273655684925  0.2578636863190124
  0.5046725265864248  0.2452392886722615  0.0034475386333035
  0.2517949019211314  0.7493865474685814  0.2491622898189613
  0.2425678046356238  0.5009753997100100  0.9934308496718429
  0.9980663308339729  0.7412026967531062  0.0033267825641692
  0.7546163262740722  0.7414574864384010  0.2542219858724345
  0.7600213714983654  0.5035546572114995  0.0025247352576467
  0.5051842341898004  0.5029874501094106  0.2574398971588429
  0.2469295605431112  0.2530261353308785  0.7483323606120698
  0.2484716220828093  0.9979460372869083  0.5049241332913792
  0.9978914349879455  0.2431773689553747  0.5015694377456338
  0.2401573443685290  0.7530996303147667  0.7500732998101494
  0.2574771620806641  0.5008423017816870  0.5031221685891040
  0.9925533204395263  0.7610687272739735  0.5002061799539635
  0.9932552625919623  0.5006482068787769  0.7537854407705814
  0.7522360913816680  0.7522685445850774  0.7492257026164844
  0.7418894457870576  0.4983924775050525  0.5014798030546551
  0.5034090215473923  0.7529136727325846  0.4949755496712970
  0.5021360954037475  0.5018700160010269  0.7407562712666201
  0.5176325773994792  0.0141663520953097  0.9809600997275175
  0.9981576508079134  0.5108829339227684  0.9842496656831291
  0.5042016073566334  0.7388527439238969  0.2586194256939800
  0.2370788969652724  0.0116308618221973  0.7461577417821343
  0.4785271472242695  0.9835062319436187  0.4974266443153343
  0.7423412900413948  0.9768858028913009  0.7650416617167530
 -0.0005525924077899  0.7744283470555310  0.2598198590547544
  0.7364911032878035  0.5129186696221614  0.2644899033937970
  0.0216002878286249 -0.0006199116214421  0.4979207272681788
  0.5043597522989375  0.5263409598444582  0.4984215029229052
  0.7413335865793445  0.5257919107133161  0.7397786010292281
  0.7541245622991942  0.7335980279927430  0.4918003764958795
 
  0.00000000E+00  0.00000000E+00  0.00000000E+00
  0.00000000E+00  0.00000000E+00  0.00000000E+00
  0.00000000E+00  0.00000000E+00  0.00000000E+00
  0.00000000E+00  0.00000000E+00  0.00000000E+00
  0.00000000E+00  0.00000000E+00  0.00000000E+00
  0.00000000E+00  0.00000000E+00  0.00000000E+00
  0.00000000E+00  0.00000000E+00  0.00000000E+00
  0.00000000E+00  0.00000000E+00  0.00000000E+00
  0.00000000E+00  0.00000000E+00  0.00000000E+00
  0.00000000E+00  0.00000000E+00  0.00000000E+00
  0.00000000E+00  0.00000000E+00  0.00000000E+00
  0.00000000E+00  0.00000000E+00  0.00000000E+00
  0.00000000E+00  0.00000000E+00  0.00000000E+00
  0.00000000E+00  0.00000000E+00  0.00000000E+00
  0.00000000E+00  0.00000000E+00  0.00000000E+00
  0.00000000E+00  0.00000000E+00  0.00000000E+00
  0.00000000E+00  0.00000000E+00  0.00000000E+00
  0.00000000E+00  0.00000000E+00  0.00000000E+00
  0.00000000E+00  0.00000000E+00  0.00000000E+00
  0.00000000E+00  0.00000000E+00  0.00000000E+00
  0.00000000E+00  0.00000000E+00  0.00000000E+00
  0.00000000E+00  0.00000000E+00  0.00000000E+00
  0.00000000E+00  0.00000000E+00  0.00000000E+00
  0.00000000E+00  0.00000000E+00  0.00000000E+00
  0.00000000E+00  0.00000000E+00  0.00000000E+00
  0.00000000E+00  0.00000000E+00  0.00000000E+00
  0.00000000E+00  0.00000000E+00  0.00000000E+00
  0.00000000E+00  0.00000000E+00  0.00000000E+00
  0.00000000E+00  0.00000000E+00  0.00000000E+00
  0.00000000E+00  0.00000000E+00  0.00000000E+00
  0.00000000E+00  0.00000000E+00  0.00000000E+00
  0.00000000E+00  0.00000000E+00  0.00000000E+00
  0.00000000E+00  0.00000000E+00  0.00000000E+00
  0.00000000E+00  0.00000000E+00  0.00000000E+00
  0.00000000E+00  0.00000000E+00  0.00000000E+00
  0.00000000E+00  0.00000000E+00  0.00000000E+00
  0.00000000E+00  0.00000000E+00  0.00000000E+00
  0.00000000E+00  0.00000000E+00  0.00000000E+00
  0.00000000E+00  0.00000000E+00  0.00000000E+00
  0.00000000E+00  0.00000000E+00  0.00000000E+00
  0.00000000E+00  0.00000000E+00  0.00000000E+00
  0.00000000E+00  0.00000000E+00  0.00000000E+00
  0.00000000E+00  0.00000000E+00  0.00000000E+00
  0.00000000E+00  0.00000000E+00  0.00000000E+00
  0.00000000E+00  0.00000000E+00  0.00000000E+00
  0.00000000E+00  0.00000000E+00  0.00000000E+00
  0.00000000E+00  0.00000000E+00  0.00000000E+00
  0.00000000E+00  0.00000000E+00  0.00000000E+00
  0.00000000E+00  0.00000000E+00  0.00000000E+00
  0.00000000E+00  0.00000000E+00  0.00000000E+00
  0.00000000E+00  0.00000000E+00  0.00000000E+00
  0.00000000E+00  0.00000000E+00  0.00000000E+00
  0.00000000E+00  0.00000000E+00  0.00000000E+00
  0.00000000E+00  0.00000000E+00  0.00000000E+00
  0.00000000E+00  0.00000000E+00  0.00000000E+00
  0.00000000E+00  0.00000000E+00  0.00000000E+00
  0.00000000E+00  0.00000000E+00  0.00000000E+00
  0.00000000E+00  0.00000000E+00  0.00000000E+00
  0.00000000E+00  0.00000000E+00  0.00000000E+00
  0.00000000E+00  0.00000000E+00  0.00000000E+00
  0.00000000E+00  0.00000000E+00  0.00000000E+00
  0.00000000E+00  0.00000000E+00  0.00000000E+00
  0.00000000E+00  0.00000000E+00  0.00000000E+00
  0.00000000E+00  0.00000000E+00  0.00000000E+00
