74-TiVTaCrW                             
   1.00000000000000     
     8.5778535460356942   -0.0082185782666852   -0.0021692521261580
    -0.0024289707140800    8.5763807333037416    0.0155451479384068
     0.0286396210566534    0.0004067928373047    8.6263444962096703
   V    Ta   Ti   N    C    Cr   W 
     7     6     7    13    19     6     6
Direct
  0.0137726419284906  0.9851288660676909  0.0214064034981268
  0.2393345320236637  0.9858362542009759  0.2450293301189255
  0.2676719085983799  0.5120521334033163  0.2455109806540511
  0.4961718094048109  0.4790093414117124 -0.0035800863582872
  0.4826072965072945  0.2384417104230714  0.7591491196166353
  0.0055371355435812  0.4957902548672856  0.5236476019646457
  0.5029330463536629  0.7572087524612505  0.7337431009543514
  0.0047202733239837  0.2573455273031914  0.2482351625892721
  0.7394698216438740  0.7514421469738303  0.0004924830358027
  0.0088671641043690  0.2409155688902532  0.7523931568267886
  0.7473341792058285  0.2504251877784323  0.5073928191440363
  0.0033006018852564  0.7580727351434788  0.7496504933691450
  0.2554559703305856  0.5021012125639038  0.7532360657038256
  0.2510051820722921  0.2444954232022689 -0.0003923500581801
  0.4912279726391725  0.2394677332572866  0.2430285492582924
  0.7379008860486855  0.9931664262561543  0.2486558901779580
  0.7460380888848340  0.2461467678293467  0.9949135037173996
  0.2641559081945803  0.7546011582945958  0.0005265380436847
  0.2520832209246817  0.2504587596602544  0.4995279610167168
  0.2518011856678717  0.7512955729934290  0.4968173009841064
  0.2506448463653475  0.2510590014975361  0.2480109846200614
  0.2534545322356949  0.0002612873178753 -0.0023079301786293
 -0.0000386246678821  0.2440370501984075  0.0011139077407640
  0.7449688714777506  0.2453863351591025  0.2487840890588807
  0.7532008229817294  0.0017027565681102  0.0031923590115850
  0.4984408543748940  0.0016045398571436  0.2333783723917302
  0.9986786341346728  0.5006783416477214  0.2451501207797986
  0.5007005958386772  0.7549389757605200 -0.0049838210090180
  0.0036100251262060  0.0012386766415886  0.7517470272408409
  0.7466366815550410  0.2403005747220458  0.7513242186407179
  0.7514194800215521  0.0021772845211671  0.4963096830757018
  0.4992410241116543  0.2464102804221941  0.4998693480435353
  0.5010631855494259  0.0008839042614026  0.7527177869466338
 -0.0036863289377885  0.0027000456371008  0.2469166613344930
  0.4984044641351114  0.2487902203232457 -0.0035142004171900
  0.2620215765862423  0.7511316087405545  0.2481175540652237
  0.2490554365277811  0.5004982274459460  0.0057986678899419
  0.0063838300347208  0.7500114450310488  0.0014049655968906
  0.7446922588564756  0.7496699563465308  0.2490397509935695
  0.7554013418350665  0.4959057193883635  0.0023951386216290
  0.4912631380627044  0.4990572029330716  0.2423471379357056
  0.2548320986155240  0.2447567797815082  0.7507948789950886
  0.2546066137452535  0.0009537792532390  0.4965178253464244
  0.0029420203859522  0.2540725306862461  0.5002097425360800
  0.2583645527751177  0.7586439686889362  0.7488023887553735
  0.2468652265457686  0.5011177257857472  0.4936414723825607
  0.0021768753900672  0.7480370989612459  0.4979423933967940
  0.9997125390334314  0.5004892890641195  0.7529024258202927
  0.7451447579279068  0.7622188448957965  0.7452708039427818
  0.7569213417319760  0.4972558821789906  0.4981911121863076
  0.4988375539973032  0.7690851360336363  0.4943769757532213
  0.5033682204697254  0.4979084527537362  0.7509101160060699
  0.5093157816018292  0.0210830632239513 -0.0021004054957722
  0.0093582156660233  0.5211645830782208  0.9761848953135068
  0.4971816043587490  0.7321249945285165  0.2715159662267320
  0.2613449930497687  0.0034107777542849  0.7434454300013785
  0.4714713370850968 -0.0038352610422539  0.5306003405706577
  0.7191672039555448  0.9854704177204624  0.7842233418834866
  0.0091285575674843  0.7559592507037814  0.2495362227516295
  0.7271873943926149  0.5042936714597398  0.2450863265326690
  0.0142576978748785  0.0046233272306875  0.4846125578822288
  0.4975366967306817  0.5107716179082147  0.4966691318750742
  0.7447617721582953  0.5106621577687339  0.7570700418662969
  0.7485718494500115  0.7378866951800562  0.4974003048309746
 
  0.00000000E+00  0.00000000E+00  0.00000000E+00
  0.00000000E+00  0.00000000E+00  0.00000000E+00
  0.00000000E+00  0.00000000E+00  0.00000000E+00
  0.00000000E+00  0.00000000E+00  0.00000000E+00
  0.00000000E+00  0.00000000E+00  0.00000000E+00
  0.00000000E+00  0.00000000E+00  0.00000000E+00
  0.00000000E+00  0.00000000E+00  0.00000000E+00
  0.00000000E+00  0.00000000E+00  0.00000000E+00
  0.00000000E+00  0.00000000E+00  0.00000000E+00
  0.00000000E+00  0.00000000E+00  0.00000000E+00
  0.00000000E+00  0.00000000E+00  0.00000000E+00
  0.00000000E+00  0.00000000E+00  0.00000000E+00
  0.00000000E+00  0.00000000E+00  0.00000000E+00
  0.00000000E+00  0.00000000E+00  0.00000000E+00
  0.00000000E+00  0.00000000E+00  0.00000000E+00
  0.00000000E+00  0.00000000E+00  0.00000000E+00
  0.00000000E+00  0.00000000E+00  0.00000000E+00
  0.00000000E+00  0.00000000E+00  0.00000000E+00
  0.00000000E+00  0.00000000E+00  0.00000000E+00
  0.00000000E+00  0.00000000E+00  0.00000000E+00
  0.00000000E+00  0.00000000E+00  0.00000000E+00
  0.00000000E+00  0.00000000E+00  0.00000000E+00
  0.00000000E+00  0.00000000E+00  0.00000000E+00
  0.00000000E+00  0.00000000E+00  0.00000000E+00
  0.00000000E+00  0.00000000E+00  0.00000000E+00
  0.00000000E+00  0.00000000E+00  0.00000000E+00
  0.00000000E+00  0.00000000E+00  0.00000000E+00
  0.00000000E+00  0.00000000E+00  0.00000000E+00
  0.00000000E+00  0.00000000E+00  0.00000000E+00
  0.00000000E+00  0.00000000E+00  0.00000000E+00
  0.00000000E+00  0.00000000E+00  0.00000000E+00
  0.00000000E+00  0.00000000E+00  0.00000000E+00
  0.00000000E+00  0.00000000E+00  0.00000000E+00
  0.00000000E+00  0.00000000E+00  0.00000000E+00
  0.00000000E+00  0.00000000E+00  0.00000000E+00
  0.00000000E+00  0.00000000E+00  0.00000000E+00
  0.00000000E+00  0.00000000E+00  0.00000000E+00
  0.00000000E+00  0.00000000E+00  0.00000000E+00
  0.00000000E+00  0.00000000E+00  0.00000000E+00
  0.00000000E+00  0.00000000E+00  0.00000000E+00
  0.00000000E+00  0.00000000E+00  0.00000000E+00
  0.00000000E+00  0.00000000E+00  0.00000000E+00
  0.00000000E+00  0.00000000E+00  0.00000000E+00
  0.00000000E+00  0.00000000E+00  0.00000000E+00
  0.00000000E+00  0.00000000E+00  0.00000000E+00
  0.00000000E+00  0.00000000E+00  0.00000000E+00
  0.00000000E+00  0.00000000E+00  0.00000000E+00
  0.00000000E+00  0.00000000E+00  0.00000000E+00
  0.00000000E+00  0.00000000E+00  0.00000000E+00
  0.00000000E+00  0.00000000E+00  0.00000000E+00
  0.00000000E+00  0.00000000E+00  0.00000000E+00
  0.00000000E+00  0.00000000E+00  0.00000000E+00
  0.00000000E+00  0.00000000E+00  0.00000000E+00
  0.00000000E+00  0.00000000E+00  0.00000000E+00
  0.00000000E+00  0.00000000E+00  0.00000000E+00
  0.00000000E+00  0.00000000E+00  0.00000000E+00
  0.00000000E+00  0.00000000E+00  0.00000000E+00
  0.00000000E+00  0.00000000E+00  0.00000000E+00
  0.00000000E+00  0.00000000E+00  0.00000000E+00
  0.00000000E+00  0.00000000E+00  0.00000000E+00
  0.00000000E+00  0.00000000E+00  0.00000000E+00
  0.00000000E+00  0.00000000E+00  0.00000000E+00
  0.00000000E+00  0.00000000E+00  0.00000000E+00
  0.00000000E+00  0.00000000E+00  0.00000000E+00
