97-TiZrHfVCr                            
   1.00000000000000     
     8.7784627028166309    0.0154131024700140   -0.0135504832798577
     0.0214824550104242    8.8160437837907608    0.0026505455501821
     0.0179873947636708   -0.0126451696271433    8.7941723936425298
   Zr   Hf   Ti   N    C    Cr   V 
     7     6     7    13    19     6     6
Direct
  0.0014972701378701  0.9912602564707196  0.0027165417445887
  0.2695010911438209  0.9995648667336128  0.2489412373418151
  0.2476595513196209  0.4976949669517761  0.2484475764822046
  0.5062031858152419  0.4985454864840594  0.0018744689643346
  0.5038356708886378  0.2469943009495668  0.7441632035754887
  0.9950647290784315  0.5041251721160125  0.5002068831179203
  0.4973590882185094  0.7585442038124627  0.7489542077064230
  0.9941681941738961  0.2484372209842170  0.2457933461544662
  0.7467448577418483  0.7493191331354819  0.0111623950896466
 -0.0045128267230946  0.2444753527962221  0.7530015442309481
  0.7461654015967886  0.2348827790476024  0.5004694150303725
  0.9983612284515606  0.7589673749667338  0.7444187090466974
  0.2505606517374860  0.5007654000549877  0.7489032284012085
  0.2584914323323428  0.2426156520561546  0.9922610395498944
  0.5074339406099654  0.2575449566533383  0.2536330189980434
  0.7354635993780998  0.9833984364528480  0.2610111586134474
  0.7453055638285612  0.2467621000309898 -0.0006831593379482
  0.2525295042265348  0.7482174329087619  0.0004578938326641
  0.2546489036683863  0.2469268544840139  0.5030657634396708
  0.2531309238268319  0.7527604046260695  0.4987932546651893
  0.2537275369014909  0.2479723804143800  0.2461713589191798
  0.2606538331553208  0.0010061730881854  0.9928412298094696
 -0.0019926251517978  0.2484929230995431 -0.0012197142886980
  0.7454927001416590  0.2457083803285579  0.2487685902961754
  0.7422701449702601  0.0020697295180261  0.0026176235707680
  0.5124258431561123  0.0033717612325632  0.2546381308915430
  0.9883220718097676  0.5030617156911839  0.2448794072048195
  0.4960057962643074  0.7631653014866284  0.0081568220269821
 -0.0003841862842722  0.0017503308385912  0.7386155949861059
  0.7520325671877871  0.2418995365581724  0.7533913116210075
  0.7427801031108823 -0.0083816560462848  0.4990121396029284
  0.4982682318181560  0.2421291075729175  0.4909281045510427
  0.5157210923940091  0.0017320081990258  0.7443352428792422
  0.9987470661187656  0.9927960428802266  0.2581120612713975
  0.5037227676637271  0.2387477336402809  0.0044740972714907
  0.2508689846833706  0.7491619350324473  0.2494736822486738
  0.2406287703645874  0.4993378724480621  0.9975669334122692
  0.0037136513964249  0.7386101596692174  0.0056974720358563
  0.7453295896706519  0.7462540966118038  0.2624562640547385
  0.7635757570059689  0.4955461425215283  0.0037810355574787
  0.5080121533280784  0.5005005265216668  0.2607533346488092
  0.2490701078051539  0.2409206167862890  0.7481056665033603
  0.2543527165848785  0.0000414338450394  0.5081060278941738
  0.0029246191578355  0.2406297265515037  0.4983559575618888
  0.2463824913387254  0.7605842915194729  0.7509241516573917
  0.2595787434686446  0.5001387729727100  0.4996299419319906
  0.9974667051960445  0.7637327415063868  0.4898803787905470
  0.9894382697644837  0.5025216833488249  0.7602863906380802
  0.7485740446732798  0.7534624891851628  0.7479551321423316
  0.7385911470917030  0.5087992992796335  0.5020472630662178
  0.4987658751889269  0.7587308302858496  0.4874727695439293
  0.5087764734973166  0.5038344418360163  0.7400389522766180
  0.5164656448621584  0.0115924708381617  0.9726296900703264
  0.9911288395073226  0.5126390430309258  0.9826411125073148
  0.4905635585255512  0.7305278205219169  0.2596707553543211
  0.2386850351395615  0.0022625445215242  0.7336391879624797
  0.4814471076460010  0.9877428884110169  0.5206248928127258
  0.7369155606869273  0.9791765782054966  0.7732449157003750
  0.0164521902145963  0.7571458374208978  0.2571904830380536
  0.7408211683382051  0.5178984031810904  0.2699445235901453
  0.0234948694197042  0.9978657792781723  0.4956099873342031
  0.5021991562299579  0.5223084246039320  0.4975853679509215
  0.7465424165994472  0.5254049358798274  0.7403689079526991
  0.7418298239069606  0.7553041449678014  0.4910052305015683
 
  0.00000000E+00  0.00000000E+00  0.00000000E+00
  0.00000000E+00  0.00000000E+00  0.00000000E+00
  0.00000000E+00  0.00000000E+00  0.00000000E+00
  0.00000000E+00  0.00000000E+00  0.00000000E+00
  0.00000000E+00  0.00000000E+00  0.00000000E+00
  0.00000000E+00  0.00000000E+00  0.00000000E+00
  0.00000000E+00  0.00000000E+00  0.00000000E+00
  0.00000000E+00  0.00000000E+00  0.00000000E+00
  0.00000000E+00  0.00000000E+00  0.00000000E+00
  0.00000000E+00  0.00000000E+00  0.00000000E+00
  0.00000000E+00  0.00000000E+00  0.00000000E+00
  0.00000000E+00  0.00000000E+00  0.00000000E+00
  0.00000000E+00  0.00000000E+00  0.00000000E+00
  0.00000000E+00  0.00000000E+00  0.00000000E+00
  0.00000000E+00  0.00000000E+00  0.00000000E+00
  0.00000000E+00  0.00000000E+00  0.00000000E+00
  0.00000000E+00  0.00000000E+00  0.00000000E+00
  0.00000000E+00  0.00000000E+00  0.00000000E+00
  0.00000000E+00  0.00000000E+00  0.00000000E+00
  0.00000000E+00  0.00000000E+00  0.00000000E+00
  0.00000000E+00  0.00000000E+00  0.00000000E+00
  0.00000000E+00  0.00000000E+00  0.00000000E+00
  0.00000000E+00  0.00000000E+00  0.00000000E+00
  0.00000000E+00  0.00000000E+00  0.00000000E+00
  0.00000000E+00  0.00000000E+00  0.00000000E+00
  0.00000000E+00  0.00000000E+00  0.00000000E+00
  0.00000000E+00  0.00000000E+00  0.00000000E+00
  0.00000000E+00  0.00000000E+00  0.00000000E+00
  0.00000000E+00  0.00000000E+00  0.00000000E+00
  0.00000000E+00  0.00000000E+00  0.00000000E+00
  0.00000000E+00  0.00000000E+00  0.00000000E+00
  0.00000000E+00  0.00000000E+00  0.00000000E+00
  0.00000000E+00  0.00000000E+00  0.00000000E+00
  0.00000000E+00  0.00000000E+00  0.00000000E+00
  0.00000000E+00  0.00000000E+00  0.00000000E+00
  0.00000000E+00  0.00000000E+00  0.00000000E+00
  0.00000000E+00  0.00000000E+00  0.00000000E+00
  0.00000000E+00  0.00000000E+00  0.00000000E+00
  0.00000000E+00  0.00000000E+00  0.00000000E+00
  0.00000000E+00  0.00000000E+00  0.00000000E+00
  0.00000000E+00  0.00000000E+00  0.00000000E+00
  0.00000000E+00  0.00000000E+00  0.00000000E+00
  0.00000000E+00  0.00000000E+00  0.00000000E+00
  0.00000000E+00  0.00000000E+00  0.00000000E+00
  0.00000000E+00  0.00000000E+00  0.00000000E+00
  0.00000000E+00  0.00000000E+00  0.00000000E+00
  0.00000000E+00  0.00000000E+00  0.00000000E+00
  0.00000000E+00  0.00000000E+00  0.00000000E+00
  0.00000000E+00  0.00000000E+00  0.00000000E+00
  0.00000000E+00  0.00000000E+00  0.00000000E+00
  0.00000000E+00  0.00000000E+00  0.00000000E+00
  0.00000000E+00  0.00000000E+00  0.00000000E+00
  0.00000000E+00  0.00000000E+00  0.00000000E+00
  0.00000000E+00  0.00000000E+00  0.00000000E+00
  0.00000000E+00  0.00000000E+00  0.00000000E+00
  0.00000000E+00  0.00000000E+00  0.00000000E+00
  0.00000000E+00  0.00000000E+00  0.00000000E+00
  0.00000000E+00  0.00000000E+00  0.00000000E+00
  0.00000000E+00  0.00000000E+00  0.00000000E+00
  0.00000000E+00  0.00000000E+00  0.00000000E+00
  0.00000000E+00  0.00000000E+00  0.00000000E+00
  0.00000000E+00  0.00000000E+00  0.00000000E+00
  0.00000000E+00  0.00000000E+00  0.00000000E+00
  0.00000000E+00  0.00000000E+00  0.00000000E+00
