9-TiZrHfTaW                             
   1.00000000000000     
     8.9556459163050217    0.0035722935075436   -0.0027724298968438
     0.0035821910088052    9.0248875833727471   -0.0092974864311721
    -0.0027735794908736   -0.0093047137857944    8.9310618272188247
  Ti              Ta              Hf              N               C               Zr              W             
     7     6     6    13    19     7     6
Direct
  0.9992902185031201  0.9956723567528569  0.0107291641969095
  0.2403140029103000  0.9935964397527093  0.2513029027246389
  0.2638757477649727  0.5044119510718513  0.2499808503988825
  0.4997518031223405  0.4985840521221794  0.9983500942061443
  0.4927451582144601  0.2592319858078446  0.7515445465400855
  0.0125117936736040  0.4968219801108227  0.4956215378159702
  0.5030454665393194  0.7379606049982402  0.7478078722765225
  0.9991835007210057  0.2423427085877748  0.2600959144417281
  0.7553937719250807  0.7445518088413500  0.0027330002817959
  0.0051619419890185  0.2647631204611674  0.7400723953546325
  0.7550140400386069  0.2711535744284201  0.5041934684081907
  0.9960348580258922  0.7340568535865688  0.7433047371341992
  0.2584776636297378  0.5001775831667681  0.7504807986108284
  0.2466714980148297  0.2510675533176902  0.0017288093058798
  0.5005291586075099  0.2537987271804038  0.2489062812979995
  0.7543972817743184  0.9951415245974856  0.2550760372919172
  0.7512614593968581  0.2515908427721165  0.9939153855139287
  0.2458929932942821  0.7494724176909329  0.0004946357109860
  0.2496181902617273  0.2520364194460814  0.4985829907792994
  0.2483557122086918  0.2495158475361730  0.2499420986004558
  0.2447109866035515  0.0005458516572541  0.0065262222003434
  0.9993576733641318  0.2441714535568753  0.0011038428660396
  0.7516282657133114  0.2495547616419340  0.2517716716984593
  0.7547624388419901  0.0001834072000162  0.0011015943211830
  0.5015046182969850  0.0047171376959640  0.2490736675954598
  0.9976365030243066  0.4942476006311557  0.2582685120756002
  0.5013525028698885  0.7467716121875290  0.9943273273220580
  0.9969329603087033  0.0032173578486796  0.7489633151117122
  0.7486512571162335  0.2502050073750933  0.7470453425099082
  0.7540974335673188  0.0117611401278970  0.4972905546496508
  0.5047899226389266  0.2519748750491107  0.5023146490225966
  0.5026577992952249  0.0014965589053237  0.7499749841823740
  0.0030603639189125  0.0031259096752937  0.2457277297915194
  0.5004914677738715  0.2535299978482235  0.9969194515267492
  0.2424637913293907  0.7496036371659822  0.2481529828041560
  0.2544318649962918  0.4999239392758310  0.0036539583914553
  0.9966954621302657  0.7558930971997347  0.0015730743280509
  0.7551418135673367  0.7440239152256184  0.2507906476306481
  0.7430558250260177  0.5009943049004354  0.0012307056348863
  0.4972203284584010  0.4984560887742634  0.2495809305318010
  0.2512475056053854  0.2539552627051014  0.7501227348961615
  0.2452663081413914  0.0024538310826072  0.4931044827130895
  0.9991653347089485  0.2512491882810311  0.5005017580546425
  0.2496765107391924  0.7455201186499779  0.7526561251388021
  0.2535809414934179  0.4979971431085821  0.4968501786845152
  0.9932030462937335  0.7530609776222454  0.4992561966737516
  0.9979594824028851  0.4993526025349639  0.7435243520495756
  0.7467065022767493  0.7438388436766884  0.7504068554172669
  0.7561183345982839  0.5001212552877451  0.4992026509085193
  0.5058180282305862  0.7441983390917428  0.5075117109621671
  0.5017877065044456  0.4985106012979746  0.7508463649274362
  0.4985005922020747  0.0013018128615412  0.9957653506301452
  0.0003133081291736  0.5016813165646360  0.0073508249003331
  0.4992244279378706  0.7465439582853133  0.2510328689150969
  0.2444225030359423  0.9994680570366626  0.7504080217389989
  0.4939702229778697  0.9958096450364022  0.5035562844510003
  0.7541698873887911  0.9900400154852624  0.7432908509627217
  0.2470838028073706  0.7472333849693574  0.5006869470175055
  0.0001066877024821  0.7696053876801283  0.2581646543107839
  0.7309793214689155  0.5059967237585254  0.2394090225321213
  0.0118402835565241  0.0039887515459595  0.4847654280314271
  0.4990243522240078  0.5061950186713152  0.5025971018995886
  0.7397387864256955  0.5085892034643916  0.7619239115062879
  0.7519272556915956  0.7229432271302625  0.4968113095924495
 
  0.00000000E+00  0.00000000E+00  0.00000000E+00
  0.00000000E+00  0.00000000E+00  0.00000000E+00
  0.00000000E+00  0.00000000E+00  0.00000000E+00
  0.00000000E+00  0.00000000E+00  0.00000000E+00
  0.00000000E+00  0.00000000E+00  0.00000000E+00
  0.00000000E+00  0.00000000E+00  0.00000000E+00
  0.00000000E+00  0.00000000E+00  0.00000000E+00
  0.00000000E+00  0.00000000E+00  0.00000000E+00
  0.00000000E+00  0.00000000E+00  0.00000000E+00
  0.00000000E+00  0.00000000E+00  0.00000000E+00
  0.00000000E+00  0.00000000E+00  0.00000000E+00
  0.00000000E+00  0.00000000E+00  0.00000000E+00
  0.00000000E+00  0.00000000E+00  0.00000000E+00
  0.00000000E+00  0.00000000E+00  0.00000000E+00
  0.00000000E+00  0.00000000E+00  0.00000000E+00
  0.00000000E+00  0.00000000E+00  0.00000000E+00
  0.00000000E+00  0.00000000E+00  0.00000000E+00
  0.00000000E+00  0.00000000E+00  0.00000000E+00
  0.00000000E+00  0.00000000E+00  0.00000000E+00
  0.00000000E+00  0.00000000E+00  0.00000000E+00
  0.00000000E+00  0.00000000E+00  0.00000000E+00
  0.00000000E+00  0.00000000E+00  0.00000000E+00
  0.00000000E+00  0.00000000E+00  0.00000000E+00
  0.00000000E+00  0.00000000E+00  0.00000000E+00
  0.00000000E+00  0.00000000E+00  0.00000000E+00
  0.00000000E+00  0.00000000E+00  0.00000000E+00
  0.00000000E+00  0.00000000E+00  0.00000000E+00
  0.00000000E+00  0.00000000E+00  0.00000000E+00
  0.00000000E+00  0.00000000E+00  0.00000000E+00
  0.00000000E+00  0.00000000E+00  0.00000000E+00
  0.00000000E+00  0.00000000E+00  0.00000000E+00
  0.00000000E+00  0.00000000E+00  0.00000000E+00
  0.00000000E+00  0.00000000E+00  0.00000000E+00
  0.00000000E+00  0.00000000E+00  0.00000000E+00
  0.00000000E+00  0.00000000E+00  0.00000000E+00
  0.00000000E+00  0.00000000E+00  0.00000000E+00
  0.00000000E+00  0.00000000E+00  0.00000000E+00
  0.00000000E+00  0.00000000E+00  0.00000000E+00
  0.00000000E+00  0.00000000E+00  0.00000000E+00
  0.00000000E+00  0.00000000E+00  0.00000000E+00
  0.00000000E+00  0.00000000E+00  0.00000000E+00
  0.00000000E+00  0.00000000E+00  0.00000000E+00
  0.00000000E+00  0.00000000E+00  0.00000000E+00
  0.00000000E+00  0.00000000E+00  0.00000000E+00
  0.00000000E+00  0.00000000E+00  0.00000000E+00
  0.00000000E+00  0.00000000E+00  0.00000000E+00
  0.00000000E+00  0.00000000E+00  0.00000000E+00
  0.00000000E+00  0.00000000E+00  0.00000000E+00
  0.00000000E+00  0.00000000E+00  0.00000000E+00
  0.00000000E+00  0.00000000E+00  0.00000000E+00
  0.00000000E+00  0.00000000E+00  0.00000000E+00
  0.00000000E+00  0.00000000E+00  0.00000000E+00
  0.00000000E+00  0.00000000E+00  0.00000000E+00
  0.00000000E+00  0.00000000E+00  0.00000000E+00
  0.00000000E+00  0.00000000E+00  0.00000000E+00
  0.00000000E+00  0.00000000E+00  0.00000000E+00
  0.00000000E+00  0.00000000E+00  0.00000000E+00
  0.00000000E+00  0.00000000E+00  0.00000000E+00
  0.00000000E+00  0.00000000E+00  0.00000000E+00
  0.00000000E+00  0.00000000E+00  0.00000000E+00
  0.00000000E+00  0.00000000E+00  0.00000000E+00
  0.00000000E+00  0.00000000E+00  0.00000000E+00
  0.00000000E+00  0.00000000E+00  0.00000000E+00
  0.00000000E+00  0.00000000E+00  0.00000000E+00
