102-TiZrNbTaCr                          
   1.00000000000000     
     8.8272367382019645    0.0217436736869493   -0.0022096820701617
     0.0279134473063301    8.8464173414587801   -0.0174069884440565
     0.0295832625480751   -0.0326479372443287    8.8494170628622264
   Zr   Ta   Ti   N    C    Cr   Nb
     7     6     7    13    19     6     6
Direct
  0.0050579867530819  0.9959659181247164  0.9978105428484968
  0.2722189528270158  0.9991615911394371  0.2515137677255644
  0.2450131843197715  0.4956679280037038  0.2470006578174872
  0.4975488882408563  0.4984278968283298  0.0006639874496109
  0.5032102971929628  0.2430938912970402  0.7437162709914525
  0.9991926577954345  0.5017580349507085  0.5051236004962387
  0.4943330857644714  0.7597246457997796  0.7520442617210941
  0.9966170479790969  0.2382349701965151  0.2510021852006425
  0.7494664189198837  0.7480865131336030  0.0069708179724588
  0.0011591239943855  0.2465771747607074  0.7494788777042597
  0.7509302011516316  0.2462023902485830  0.4969211068225443
  0.0004490737558554  0.7534321043864853  0.7507500357005044
  0.2478565197262894  0.4948949809901280  0.7519398870459538
  0.2594415081487871  0.2389782811200113  0.9919707744695092
  0.5065985659377946  0.2594285730626535  0.2516294765146828
  0.7325756056403967  0.9932059529255930  0.2489175200649746
  0.7428643778352878  0.2463714069577156  0.0002282513729055
  0.2492482443935480  0.7498293523346133  0.9999034451560462
  0.2518759426302854  0.2465642443781698  0.5054947689017585
  0.2514435967592398  0.7538519111530796  0.5018250887016120
  0.2488601836280737  0.2461725868762991  0.2461156588710883
  0.2616778387097621  0.0009084866702006  0.9935905313517776
  0.0012756267865583  0.2525166805116489  0.0003779551705792
  0.7490618081933746  0.2441287835182515  0.2473932756271841
  0.7436585726166769  0.0007538730882083  0.0056607322876344
  0.5125712477597650  0.0055603138731357  0.2486729976415626
  0.9939602788357714  0.4925292992090646  0.2426811225803698
  0.5001641842196939  0.7617431110506943  0.0085407364514425
  0.9862707618580213  0.0033228889147979  0.7454049081153353
  0.7559598080603098  0.2441509373327274  0.7490730031754024
  0.7455443200854740  0.0078005256460534  0.4905775899866264
  0.5006718720956316  0.2440980540911835  0.4902222476747703
  0.5245304913217341  0.0011002242377909  0.7481167327532731
  0.9980094403455704  0.0000463556728028  0.2518206218550726
  0.5017866435744318  0.2395028620324967  0.0037601622266319
  0.2563919189522763  0.7485123052054247  0.2485175079647261
  0.2385194914187232  0.4995872247540364  0.9948169297089968
  0.0024244972686326  0.7428763495362024  0.0004776958134209
  0.7434949899003942  0.7532506606620094  0.2498629880678067
  0.7604713470889785  0.4974233710738974  0.0013798931768258
  0.5016644031384980  0.4975103635943927  0.2534483956302468
  0.2471768169112846  0.2449430780648160  0.7493945513580421
  0.2592316926172726  0.0004779946031802  0.5121943340507211
  0.0020940284464126  0.2475051242675327  0.4996003712276426
  0.2415978927550366  0.7575667860069583  0.7518856346536791
  0.2538903114394475  0.4993600811528512  0.5026195980802191
  0.0007248915537805  0.7553716701081555  0.5015770443544482
  0.9992634661949300  0.5008300572128469  0.7593315192384769
  0.7514171454622079  0.7583551120926644  0.7546532117369632
  0.7453006373671390  0.4989208616545644  0.4993965282615298
  0.4942763967296992  0.7624922370929584  0.4894246667694514
  0.4987440571892880  0.5013128448457640  0.7453891251454349
  0.5174014674303113  0.0138453731136077  0.9762107767370525
  0.0019422378029538  0.5196412307595527  0.9838926917197928
  0.4957187268169323  0.7281420900733365  0.2563182256737293
  0.2254420590544900  0.0128034489742056  0.7339703795156559
  0.4868983821903606  0.9864270413156316  0.5219724763845974
  0.7367211228428624  0.9754087938425827  0.7885115407818859
  0.0066403357147195  0.7589151885999819  0.2524119034811976
  0.7485005249000788  0.5046345568504832  0.2503073913913071
  0.0102709049242855  0.0013534525329660  0.5005755597942639
  0.4974989538625065  0.5131830477384870  0.4980134082692620
  0.7496993549456084  0.5104446661840725  0.7538148733736094
  0.7454779632239668  0.7551119945699134  0.4931173131924806
 
  0.00000000E+00  0.00000000E+00  0.00000000E+00
  0.00000000E+00  0.00000000E+00  0.00000000E+00
  0.00000000E+00  0.00000000E+00  0.00000000E+00
  0.00000000E+00  0.00000000E+00  0.00000000E+00
  0.00000000E+00  0.00000000E+00  0.00000000E+00
  0.00000000E+00  0.00000000E+00  0.00000000E+00
  0.00000000E+00  0.00000000E+00  0.00000000E+00
  0.00000000E+00  0.00000000E+00  0.00000000E+00
  0.00000000E+00  0.00000000E+00  0.00000000E+00
  0.00000000E+00  0.00000000E+00  0.00000000E+00
  0.00000000E+00  0.00000000E+00  0.00000000E+00
  0.00000000E+00  0.00000000E+00  0.00000000E+00
  0.00000000E+00  0.00000000E+00  0.00000000E+00
  0.00000000E+00  0.00000000E+00  0.00000000E+00
  0.00000000E+00  0.00000000E+00  0.00000000E+00
  0.00000000E+00  0.00000000E+00  0.00000000E+00
  0.00000000E+00  0.00000000E+00  0.00000000E+00
  0.00000000E+00  0.00000000E+00  0.00000000E+00
  0.00000000E+00  0.00000000E+00  0.00000000E+00
  0.00000000E+00  0.00000000E+00  0.00000000E+00
  0.00000000E+00  0.00000000E+00  0.00000000E+00
  0.00000000E+00  0.00000000E+00  0.00000000E+00
  0.00000000E+00  0.00000000E+00  0.00000000E+00
  0.00000000E+00  0.00000000E+00  0.00000000E+00
  0.00000000E+00  0.00000000E+00  0.00000000E+00
  0.00000000E+00  0.00000000E+00  0.00000000E+00
  0.00000000E+00  0.00000000E+00  0.00000000E+00
  0.00000000E+00  0.00000000E+00  0.00000000E+00
  0.00000000E+00  0.00000000E+00  0.00000000E+00
  0.00000000E+00  0.00000000E+00  0.00000000E+00
  0.00000000E+00  0.00000000E+00  0.00000000E+00
  0.00000000E+00  0.00000000E+00  0.00000000E+00
  0.00000000E+00  0.00000000E+00  0.00000000E+00
  0.00000000E+00  0.00000000E+00  0.00000000E+00
  0.00000000E+00  0.00000000E+00  0.00000000E+00
  0.00000000E+00  0.00000000E+00  0.00000000E+00
  0.00000000E+00  0.00000000E+00  0.00000000E+00
  0.00000000E+00  0.00000000E+00  0.00000000E+00
  0.00000000E+00  0.00000000E+00  0.00000000E+00
  0.00000000E+00  0.00000000E+00  0.00000000E+00
  0.00000000E+00  0.00000000E+00  0.00000000E+00
  0.00000000E+00  0.00000000E+00  0.00000000E+00
  0.00000000E+00  0.00000000E+00  0.00000000E+00
  0.00000000E+00  0.00000000E+00  0.00000000E+00
  0.00000000E+00  0.00000000E+00  0.00000000E+00
  0.00000000E+00  0.00000000E+00  0.00000000E+00
  0.00000000E+00  0.00000000E+00  0.00000000E+00
  0.00000000E+00  0.00000000E+00  0.00000000E+00
  0.00000000E+00  0.00000000E+00  0.00000000E+00
  0.00000000E+00  0.00000000E+00  0.00000000E+00
  0.00000000E+00  0.00000000E+00  0.00000000E+00
  0.00000000E+00  0.00000000E+00  0.00000000E+00
  0.00000000E+00  0.00000000E+00  0.00000000E+00
  0.00000000E+00  0.00000000E+00  0.00000000E+00
  0.00000000E+00  0.00000000E+00  0.00000000E+00
  0.00000000E+00  0.00000000E+00  0.00000000E+00
  0.00000000E+00  0.00000000E+00  0.00000000E+00
  0.00000000E+00  0.00000000E+00  0.00000000E+00
  0.00000000E+00  0.00000000E+00  0.00000000E+00
  0.00000000E+00  0.00000000E+00  0.00000000E+00
  0.00000000E+00  0.00000000E+00  0.00000000E+00
  0.00000000E+00  0.00000000E+00  0.00000000E+00
  0.00000000E+00  0.00000000E+00  0.00000000E+00
  0.00000000E+00  0.00000000E+00  0.00000000E+00
