98-TiZrHfNbCr                           
   1.00000000000000     
     8.8909133191871383    0.0084058153252523   -0.0087029664792208
     0.0146204413057984    8.8889570494760939   -0.0126088754463511
     0.0233483048986379   -0.0279570756625660    8.9267007417649609
   Zr   Hf   Ti   N    C    Cr   Nb
     7     6     7    13    19     6     6
Direct
  0.0070500871724602  0.9923623937136982  0.0005742345851204
  0.2729951828224134  0.9986793132750268  0.2532326099914333
  0.2481289218837535  0.4966290212753428  0.2484785799368071
  0.4965423428991259  0.4992906408469567  0.0003423866410319
  0.5014104767685975  0.2446705189742746  0.7460794907707462
 -0.0006686338199418  0.4998761404745110  0.5048341789862132
  0.4954722078647076  0.7605830286381382  0.7482254859525264
 -0.0001236088302328  0.2459738791837791  0.2430011232347832
  0.7419446631806960  0.7526351310144469  0.0069972014140309
  0.9953392821359603  0.2455490660711928  0.7575392601667559
  0.7462328832067394  0.2403028730583945  0.4984937764698624
 -0.0001508400510785  0.7572189095696694  0.7492911833430551
  0.2479430307659457  0.5004901600549926  0.7515496917985334
  0.2615325119463558  0.2359042002659081  0.9920934282090801
  0.5028148970615657  0.2591103573803105  0.2499303693488792
  0.7315514356506055  0.9934912099315459  0.2488943816973470
  0.7394055965347013  0.2458218792285067  0.0011017345709966
  0.2548939920668646  0.7527627265003493  0.0008171963947625
  0.2543826960573663  0.2460181009121885  0.5062099008848158
  0.2531590824807496  0.7542115099914143  0.5000634643870393
  0.2536832758456165  0.2465411853460001  0.2450847898559693
  0.2621856110701870  0.0009470968383909  0.9962348289792735
  0.9977870589445508  0.2471229390125206  0.9997110632753502
  0.7462780093056451  0.2454057770297239  0.2468219039797957
  0.7416490515921380  0.0034330794896527  0.0034917640923946
  0.5123701725714953  0.0067690725232603  0.2562233334427992
  0.9952780469600507  0.4970760898040831  0.2436421513018437
  0.4953078257830492  0.7630894688275607  0.0059931378053332
 -0.0077318903449280  0.0029286780378195  0.7450513838237364
  0.7507127624741035  0.2460093309130773  0.7527265425014444
  0.7475768840792162  0.0001033924893876  0.4901077854697020
  0.4975445678019604  0.2446611209803254  0.4918445586600386
  0.5257255081958729  0.0020663002519666  0.7458582708994556
 -0.0000711455288609  0.9969999585822412  0.2518728683252723
  0.5018657165800087  0.2390668546401006  0.0039159431703533
  0.2564933177045669  0.7484517387551373  0.2482983335818201
  0.2379325648717567  0.4999233306080947  0.9981407759206168
  0.0040861350324979  0.7419013908331499  0.0020329440127179
  0.7433381073818915  0.7533944495165358  0.2533751581896198
  0.7594065682258394  0.4950046783724416  0.0024456228805885
  0.5023701280246031  0.4972493961967024  0.2534830734105092
  0.2474336754041357  0.2377592289994548  0.7493677372556763
  0.2595530658866798  0.0003466918894868  0.5094965420575298
  0.0015073875308095  0.2446125693165120  0.4987544658385218
  0.2460780067229264  0.7631719987115066  0.7512249116532141
  0.2546390614797565  0.4975586430157912  0.5007448509906719
 -0.0003024438168002  0.7559893035395412  0.4965117921068359
  0.9963758140662730  0.5019564648902045  0.7619527264341441
  0.7488654002853571  0.7590227090193098  0.7535192718430633
  0.7450006359682663  0.5023218083008683  0.4999386104937995
  0.4954496399607028  0.7626374521522619  0.4886206546889071
  0.5015827997317669  0.5022389833680029  0.7457094918108208
  0.5134955673354117  0.0114150737350088  0.9704028026817698
  0.0043414249063984  0.5199390750467343  0.9876443930437853
  0.4977245152227137  0.7276235555207232  0.2624088652542608
  0.2294068981218588  0.0014706318192830  0.7262232555195219
  0.4848666864840031  0.9913185467588282  0.5228925109215836
  0.7385935945021014  0.9802215327186753  0.7844712656801908
  0.0084038810556360  0.7523752248276455  0.2514656003530713
  0.7467309313013000  0.5057519286043749  0.2513555940978573
  0.0140828182418663  0.0000362007198804  0.4982080851795859
  0.4980699803366682  0.5110701987492055  0.4987843796644571
  0.7491853375243400  0.5121719199857968  0.7538359948898981
  0.7452712133792081  0.7592636199020671  0.4923604211783897
 
  0.00000000E+00  0.00000000E+00  0.00000000E+00
  0.00000000E+00  0.00000000E+00  0.00000000E+00
  0.00000000E+00  0.00000000E+00  0.00000000E+00
  0.00000000E+00  0.00000000E+00  0.00000000E+00
  0.00000000E+00  0.00000000E+00  0.00000000E+00
  0.00000000E+00  0.00000000E+00  0.00000000E+00
  0.00000000E+00  0.00000000E+00  0.00000000E+00
  0.00000000E+00  0.00000000E+00  0.00000000E+00
  0.00000000E+00  0.00000000E+00  0.00000000E+00
  0.00000000E+00  0.00000000E+00  0.00000000E+00
  0.00000000E+00  0.00000000E+00  0.00000000E+00
  0.00000000E+00  0.00000000E+00  0.00000000E+00
  0.00000000E+00  0.00000000E+00  0.00000000E+00
  0.00000000E+00  0.00000000E+00  0.00000000E+00
  0.00000000E+00  0.00000000E+00  0.00000000E+00
  0.00000000E+00  0.00000000E+00  0.00000000E+00
  0.00000000E+00  0.00000000E+00  0.00000000E+00
  0.00000000E+00  0.00000000E+00  0.00000000E+00
  0.00000000E+00  0.00000000E+00  0.00000000E+00
  0.00000000E+00  0.00000000E+00  0.00000000E+00
  0.00000000E+00  0.00000000E+00  0.00000000E+00
  0.00000000E+00  0.00000000E+00  0.00000000E+00
  0.00000000E+00  0.00000000E+00  0.00000000E+00
  0.00000000E+00  0.00000000E+00  0.00000000E+00
  0.00000000E+00  0.00000000E+00  0.00000000E+00
  0.00000000E+00  0.00000000E+00  0.00000000E+00
  0.00000000E+00  0.00000000E+00  0.00000000E+00
  0.00000000E+00  0.00000000E+00  0.00000000E+00
  0.00000000E+00  0.00000000E+00  0.00000000E+00
  0.00000000E+00  0.00000000E+00  0.00000000E+00
  0.00000000E+00  0.00000000E+00  0.00000000E+00
  0.00000000E+00  0.00000000E+00  0.00000000E+00
  0.00000000E+00  0.00000000E+00  0.00000000E+00
  0.00000000E+00  0.00000000E+00  0.00000000E+00
  0.00000000E+00  0.00000000E+00  0.00000000E+00
  0.00000000E+00  0.00000000E+00  0.00000000E+00
  0.00000000E+00  0.00000000E+00  0.00000000E+00
  0.00000000E+00  0.00000000E+00  0.00000000E+00
  0.00000000E+00  0.00000000E+00  0.00000000E+00
  0.00000000E+00  0.00000000E+00  0.00000000E+00
  0.00000000E+00  0.00000000E+00  0.00000000E+00
  0.00000000E+00  0.00000000E+00  0.00000000E+00
  0.00000000E+00  0.00000000E+00  0.00000000E+00
  0.00000000E+00  0.00000000E+00  0.00000000E+00
  0.00000000E+00  0.00000000E+00  0.00000000E+00
  0.00000000E+00  0.00000000E+00  0.00000000E+00
  0.00000000E+00  0.00000000E+00  0.00000000E+00
  0.00000000E+00  0.00000000E+00  0.00000000E+00
  0.00000000E+00  0.00000000E+00  0.00000000E+00
  0.00000000E+00  0.00000000E+00  0.00000000E+00
  0.00000000E+00  0.00000000E+00  0.00000000E+00
  0.00000000E+00  0.00000000E+00  0.00000000E+00
  0.00000000E+00  0.00000000E+00  0.00000000E+00
  0.00000000E+00  0.00000000E+00  0.00000000E+00
  0.00000000E+00  0.00000000E+00  0.00000000E+00
  0.00000000E+00  0.00000000E+00  0.00000000E+00
  0.00000000E+00  0.00000000E+00  0.00000000E+00
  0.00000000E+00  0.00000000E+00  0.00000000E+00
  0.00000000E+00  0.00000000E+00  0.00000000E+00
  0.00000000E+00  0.00000000E+00  0.00000000E+00
  0.00000000E+00  0.00000000E+00  0.00000000E+00
  0.00000000E+00  0.00000000E+00  0.00000000E+00
  0.00000000E+00  0.00000000E+00  0.00000000E+00
  0.00000000E+00  0.00000000E+00  0.00000000E+00
