77-ZrHfVCrMo                            
   1.00000000000000     
     8.8228177488272177    0.0047166807407452   -0.0187014833444137
     0.0103702238788545    8.9181517797827592   -0.0274216841018117
     0.0129510448830962   -0.0425825369368444    8.8322837155972920
   Hf   V    Zr   N    C    Cr   Mo
     7     6     7    13    19     6     6
Direct
  0.9890567259959234  0.9934541325093670  0.9895280065591869
  0.2607194591080675  0.9986549624216148  0.2519616315923601
  0.2374488543226369  0.4994909326693434  0.2426680465453424
  0.5006763283701954  0.5042696936182312  0.9939373274686940
  0.5112576324190676  0.2506195650413796  0.7402244203939113
  0.9986778070251487  0.5038787205933750  0.4969529322668415
  0.5011993567752115  0.7518254598043320  0.7454458787728554
  0.9873486575342127  0.2245541107477448  0.2699961329704201
  0.7626609184070646  0.7380966947498552  0.0146153721871775
 -0.0028322737644450  0.2476426242510028  0.7231561510043047
  0.7540538544378982  0.2778256552285822  0.5069188071738859
  0.0040647391426333  0.7335292345164475  0.7574571168879968
  0.2324116166025602  0.4845014691623734  0.7557822273320662
  0.2407965542581543  0.2433839785851508  0.9945776005148502
  0.5089247583262967  0.2545377526803259  0.2514574568721775
  0.7401862086217632  0.9933979636068972  0.2772773111298123
  0.7604788819009138  0.2565126807901705  0.9924793837941328
  0.2525522655925182  0.7568398103978751  0.9971339078288931
  0.2528921664995218  0.2516049173052929  0.5003422439981875
  0.2471784552117976  0.7504521275405005  0.5045990249039927
  0.2462255748139371  0.2484013490615308  0.2486550725228086
  0.2462873870150209  0.0007156704561618 -0.0009006535829284
 -0.0009475559635262  0.2408705851118802  0.0103985341327788
  0.7606260567824029  0.2492303801854234  0.2599008227498517
  0.7450124835235079  0.9923481757011268 -0.0091275631720382
  0.4984419700351960 -0.0010081802384794  0.2720484748747979
  0.9932038291703777  0.4923272887336397  0.2472256426255934
  0.5118241738136211  0.7606291452036359 -0.0054908584574997
  0.9864428787349301  0.0144565060759180  0.7455637588662704
  0.7596536463863540  0.2590045097498815  0.7387766164151971
  0.7569342052235571 -0.0095349973138613  0.5191587268340417
  0.5129431595530655  0.2497431258013919  0.4997704921725427
  0.5298085916535532 -0.0015514956434213  0.7376392639567466
 -0.0013837925839915  0.0026931964070636  0.2543425579289512
  0.5046753645625460  0.2371588791660733 -0.0072512188248303
  0.2554402789448427  0.7499147222303360  0.2505478989684012
  0.2403265410867312  0.5009898936511821  0.9893164300936313
  0.9940042406150585  0.7422666997819192  0.0009882215491954
  0.7435148340355412  0.7430557144311297  0.2461924336807112
  0.7644200155575448  0.5108151131951303  0.0061165495868911
  0.4932576185561351  0.5065515210043374  0.2449252198954875
  0.2410569632811464  0.2502973732208621  0.7470961200905748
  0.2553196628322786  0.0015439966673739  0.5159906566431016
  0.9907223583030282  0.2489209858044891  0.4998317325982237
  0.2371955935369164  0.7555935238855076  0.7513126551716657
  0.2532461074253939  0.5006544273165223  0.5040307324309526
  0.9905667099095221  0.7567036034523281  0.5097213123363185
  0.0050714622931308  0.4988907379635521  0.7557243002284229
  0.7597621216629898  0.7510450502630130  0.7546821263211484
  0.7491909978350674  0.4953590653755378  0.5030155775981361
  0.5052522849478647  0.7628331048052529  0.4898488462991201
  0.5031916273431061  0.5013322795635328  0.7416520072539946
  0.5298948994297039  0.0055777566457439  0.9540175527843161
  0.9974661987359198  0.5235928169042340  0.9796741487644360
  0.5040492734927368  0.7279713148824413  0.2679855082505976
  0.2111238371874242  0.0200613391066599  0.7380917171934147
  0.4746070267402782  0.9931167556193942  0.5229716315272297
  0.7471927006861548  0.9589638533487796  0.7561021387659573
 -0.0016859635201588  0.7723712685532972  0.2549538183252750
  0.7343210239741288  0.5096975037671463  0.2517865610695804
  0.0132577325560579  0.0022402907542282  0.5057258802853853
  0.5076428384287905  0.5111295028936385  0.4875673940003651
  0.7640030040724777  0.5171340836629990  0.7616485759551228
  0.7470874465424763  0.7308188275716085  0.4912617390929894
 
  0.00000000E+00  0.00000000E+00  0.00000000E+00
  0.00000000E+00  0.00000000E+00  0.00000000E+00
  0.00000000E+00  0.00000000E+00  0.00000000E+00
  0.00000000E+00  0.00000000E+00  0.00000000E+00
  0.00000000E+00  0.00000000E+00  0.00000000E+00
  0.00000000E+00  0.00000000E+00  0.00000000E+00
  0.00000000E+00  0.00000000E+00  0.00000000E+00
  0.00000000E+00  0.00000000E+00  0.00000000E+00
  0.00000000E+00  0.00000000E+00  0.00000000E+00
  0.00000000E+00  0.00000000E+00  0.00000000E+00
  0.00000000E+00  0.00000000E+00  0.00000000E+00
  0.00000000E+00  0.00000000E+00  0.00000000E+00
  0.00000000E+00  0.00000000E+00  0.00000000E+00
  0.00000000E+00  0.00000000E+00  0.00000000E+00
  0.00000000E+00  0.00000000E+00  0.00000000E+00
  0.00000000E+00  0.00000000E+00  0.00000000E+00
  0.00000000E+00  0.00000000E+00  0.00000000E+00
  0.00000000E+00  0.00000000E+00  0.00000000E+00
  0.00000000E+00  0.00000000E+00  0.00000000E+00
  0.00000000E+00  0.00000000E+00  0.00000000E+00
  0.00000000E+00  0.00000000E+00  0.00000000E+00
  0.00000000E+00  0.00000000E+00  0.00000000E+00
  0.00000000E+00  0.00000000E+00  0.00000000E+00
  0.00000000E+00  0.00000000E+00  0.00000000E+00
  0.00000000E+00  0.00000000E+00  0.00000000E+00
  0.00000000E+00  0.00000000E+00  0.00000000E+00
  0.00000000E+00  0.00000000E+00  0.00000000E+00
  0.00000000E+00  0.00000000E+00  0.00000000E+00
  0.00000000E+00  0.00000000E+00  0.00000000E+00
  0.00000000E+00  0.00000000E+00  0.00000000E+00
  0.00000000E+00  0.00000000E+00  0.00000000E+00
  0.00000000E+00  0.00000000E+00  0.00000000E+00
  0.00000000E+00  0.00000000E+00  0.00000000E+00
  0.00000000E+00  0.00000000E+00  0.00000000E+00
  0.00000000E+00  0.00000000E+00  0.00000000E+00
  0.00000000E+00  0.00000000E+00  0.00000000E+00
  0.00000000E+00  0.00000000E+00  0.00000000E+00
  0.00000000E+00  0.00000000E+00  0.00000000E+00
  0.00000000E+00  0.00000000E+00  0.00000000E+00
  0.00000000E+00  0.00000000E+00  0.00000000E+00
  0.00000000E+00  0.00000000E+00  0.00000000E+00
  0.00000000E+00  0.00000000E+00  0.00000000E+00
  0.00000000E+00  0.00000000E+00  0.00000000E+00
  0.00000000E+00  0.00000000E+00  0.00000000E+00
  0.00000000E+00  0.00000000E+00  0.00000000E+00
  0.00000000E+00  0.00000000E+00  0.00000000E+00
  0.00000000E+00  0.00000000E+00  0.00000000E+00
  0.00000000E+00  0.00000000E+00  0.00000000E+00
  0.00000000E+00  0.00000000E+00  0.00000000E+00
  0.00000000E+00  0.00000000E+00  0.00000000E+00
  0.00000000E+00  0.00000000E+00  0.00000000E+00
  0.00000000E+00  0.00000000E+00  0.00000000E+00
  0.00000000E+00  0.00000000E+00  0.00000000E+00
  0.00000000E+00  0.00000000E+00  0.00000000E+00
  0.00000000E+00  0.00000000E+00  0.00000000E+00
  0.00000000E+00  0.00000000E+00  0.00000000E+00
  0.00000000E+00  0.00000000E+00  0.00000000E+00
  0.00000000E+00  0.00000000E+00  0.00000000E+00
  0.00000000E+00  0.00000000E+00  0.00000000E+00
  0.00000000E+00  0.00000000E+00  0.00000000E+00
  0.00000000E+00  0.00000000E+00  0.00000000E+00
  0.00000000E+00  0.00000000E+00  0.00000000E+00
  0.00000000E+00  0.00000000E+00  0.00000000E+00
  0.00000000E+00  0.00000000E+00  0.00000000E+00
