87-ZrNbTaCrMo                           
   1.00000000000000     
     8.8635391729245736   -0.0107985777779837   -0.0181039015225336
    -0.0051985264250727    8.9091911307736673   -0.0143684243144591
     0.0137364820585199   -0.0298474361615913    8.9143816228370500
   Nb   Ta   Zr   N    C    Cr   Mo
     7     6     7    13    19     6     6
Direct
  0.0004356936273620  0.9843648032980837  0.9999321915488307
  0.2485357815919557  0.9878416748383018  0.2593051706124522
  0.2526662619555601  0.5135424360413041  0.2459763901374458
  0.5046819167240338  0.4893109530398918  0.9928201958008784
  0.4919576750092209  0.2500028522759142  0.7488693860824437
  0.9978169588108861  0.4992779459019880  0.5065689277837158
  0.5065023484916059  0.7538281746511836  0.7369005702127031
 -0.0023622390871365  0.2433135988150390  0.2571504246055629
  0.7495076020073639  0.7460643412682257  0.0049531616996389
  0.0079939251820938  0.2437423983695791  0.7439038341442968
  0.7493371512107290  0.2510162860682936  0.5122617875815780
  0.0010044922546362  0.7531800501684637  0.7486333117433580
  0.2502668758824703  0.5040214581694602  0.7517490904062459
  0.2461937569780788  0.2455158393240644 -0.0010704734928789
  0.4996248311619209  0.2464934904671420  0.2493018913653907
  0.7378228772864872  0.9887692159625555  0.2637447616430847
  0.7521717355625304  0.2467030897754713  0.9900240307027375
  0.2646885885550306  0.7574316139228062  0.0005644921287093
  0.2536536619233685  0.2517269394437964  0.5009622869520471
  0.2485237139433875  0.7514443926321360  0.5007694741747836
  0.2441079748950228  0.2505599898693210  0.2505633071654164
  0.2462812994210664  0.0004867940798194  0.0060130741851242
 -0.0013155940473749  0.2401648109358578  0.0035363617227780
  0.7538245959323228  0.2460512389049870  0.2561936356442200
  0.7431674812800667  0.9900720296274154 -0.0015618266141362
  0.4920674412724236  0.9950440495905997  0.2773380624680361
  0.0021270119641418  0.4848225621103620  0.2569624018274163
  0.5115826887803762  0.7579049605861974 -0.0146611177027888
  0.9860756407486825  0.0025548488541725  0.7470395125927332
  0.7536006740473767  0.2501063334967039  0.7443287387721508
  0.7591375580141045  0.0118958408648656  0.5061065859991961
  0.5088853500629028  0.2492261067116220  0.5018839025805445
  0.5322291246242771  0.0023859539346828  0.7346541313651026
 -0.0027199095303401  0.0008836137026827  0.2480243838919099
  0.5003158628643417  0.2415828336334743 -0.0051273436213122
  0.2613595316099119  0.7509514262845404  0.2511877562053029
  0.2424194088408162  0.5026395792244057  0.9975507019878864
  0.0002725652025922  0.7443416157099189  0.0014499720207061
  0.7432422023042751  0.7389878522201125  0.2489064579787169
  0.7638958128462365  0.5017374235996651  0.0058352727026070
  0.4937131423732253  0.5104309754008183  0.2434208689622905
  0.2496444255093644  0.2455853443110103  0.7503015126093167
  0.2542209857739817  0.0008181357180955  0.5162887480058511
  0.9971546420136709  0.2512626211324518  0.5011676917260858
  0.2511009365515302  0.7594232591383479  0.7502967071800127
  0.2507927256686329  0.5018732484153398  0.4998435979517050
  0.9914759959279501  0.7541554772130645  0.5000311906504034
  0.0000844839823168  0.5006948834837950  0.7532112435046817
  0.7532328936228192  0.7561483770391059  0.7454737351063246
  0.7481823218053277  0.4949355894096674  0.5016386777928474
  0.5075620443063950  0.7667615522695130  0.4931410872333762
  0.5035470890780486  0.5006850428366967  0.7433800135163413
  0.5224223473891402  0.0196282752003878  0.9474926944394448
  0.9927551717616173  0.5305379564387480  0.9693140519966928
  0.5097254465018443  0.7326364461736459  0.2839064481780094
  0.2204646890341949 -0.0010518260548459  0.7404808296069872
  0.4698375218890968  0.9947094057895668  0.5198073875863057
  0.7424555490932283  0.9688119285580917  0.7734591257283879
 -0.0022383624370720  0.7670122844602176  0.2542070466523541
  0.7253137747520254  0.5092360244901865  0.2482910672723216
  0.0141920100194098  0.0071765113518062  0.4922399848256327
  0.5014852558026552  0.5137371817802622  0.4894920439949382
  0.7525595195448613  0.5182916497951789  0.7586472801273735
  0.7487354358309115  0.7265079882737459  0.4949222243477024
 
  0.00000000E+00  0.00000000E+00  0.00000000E+00
  0.00000000E+00  0.00000000E+00  0.00000000E+00
  0.00000000E+00  0.00000000E+00  0.00000000E+00
  0.00000000E+00  0.00000000E+00  0.00000000E+00
  0.00000000E+00  0.00000000E+00  0.00000000E+00
  0.00000000E+00  0.00000000E+00  0.00000000E+00
  0.00000000E+00  0.00000000E+00  0.00000000E+00
  0.00000000E+00  0.00000000E+00  0.00000000E+00
  0.00000000E+00  0.00000000E+00  0.00000000E+00
  0.00000000E+00  0.00000000E+00  0.00000000E+00
  0.00000000E+00  0.00000000E+00  0.00000000E+00
  0.00000000E+00  0.00000000E+00  0.00000000E+00
  0.00000000E+00  0.00000000E+00  0.00000000E+00
  0.00000000E+00  0.00000000E+00  0.00000000E+00
  0.00000000E+00  0.00000000E+00  0.00000000E+00
  0.00000000E+00  0.00000000E+00  0.00000000E+00
  0.00000000E+00  0.00000000E+00  0.00000000E+00
  0.00000000E+00  0.00000000E+00  0.00000000E+00
  0.00000000E+00  0.00000000E+00  0.00000000E+00
  0.00000000E+00  0.00000000E+00  0.00000000E+00
  0.00000000E+00  0.00000000E+00  0.00000000E+00
  0.00000000E+00  0.00000000E+00  0.00000000E+00
  0.00000000E+00  0.00000000E+00  0.00000000E+00
  0.00000000E+00  0.00000000E+00  0.00000000E+00
  0.00000000E+00  0.00000000E+00  0.00000000E+00
  0.00000000E+00  0.00000000E+00  0.00000000E+00
  0.00000000E+00  0.00000000E+00  0.00000000E+00
  0.00000000E+00  0.00000000E+00  0.00000000E+00
  0.00000000E+00  0.00000000E+00  0.00000000E+00
  0.00000000E+00  0.00000000E+00  0.00000000E+00
  0.00000000E+00  0.00000000E+00  0.00000000E+00
  0.00000000E+00  0.00000000E+00  0.00000000E+00
  0.00000000E+00  0.00000000E+00  0.00000000E+00
  0.00000000E+00  0.00000000E+00  0.00000000E+00
  0.00000000E+00  0.00000000E+00  0.00000000E+00
  0.00000000E+00  0.00000000E+00  0.00000000E+00
  0.00000000E+00  0.00000000E+00  0.00000000E+00
  0.00000000E+00  0.00000000E+00  0.00000000E+00
  0.00000000E+00  0.00000000E+00  0.00000000E+00
  0.00000000E+00  0.00000000E+00  0.00000000E+00
  0.00000000E+00  0.00000000E+00  0.00000000E+00
  0.00000000E+00  0.00000000E+00  0.00000000E+00
  0.00000000E+00  0.00000000E+00  0.00000000E+00
  0.00000000E+00  0.00000000E+00  0.00000000E+00
  0.00000000E+00  0.00000000E+00  0.00000000E+00
  0.00000000E+00  0.00000000E+00  0.00000000E+00
  0.00000000E+00  0.00000000E+00  0.00000000E+00
  0.00000000E+00  0.00000000E+00  0.00000000E+00
  0.00000000E+00  0.00000000E+00  0.00000000E+00
  0.00000000E+00  0.00000000E+00  0.00000000E+00
  0.00000000E+00  0.00000000E+00  0.00000000E+00
  0.00000000E+00  0.00000000E+00  0.00000000E+00
  0.00000000E+00  0.00000000E+00  0.00000000E+00
  0.00000000E+00  0.00000000E+00  0.00000000E+00
  0.00000000E+00  0.00000000E+00  0.00000000E+00
  0.00000000E+00  0.00000000E+00  0.00000000E+00
  0.00000000E+00  0.00000000E+00  0.00000000E+00
  0.00000000E+00  0.00000000E+00  0.00000000E+00
  0.00000000E+00  0.00000000E+00  0.00000000E+00
  0.00000000E+00  0.00000000E+00  0.00000000E+00
  0.00000000E+00  0.00000000E+00  0.00000000E+00
  0.00000000E+00  0.00000000E+00  0.00000000E+00
  0.00000000E+00  0.00000000E+00  0.00000000E+00
  0.00000000E+00  0.00000000E+00  0.00000000E+00
