98-TiZrHfNbCr                           
   1.00000000000000     
     8.8880629952656900    0.0157498621754573   -0.0080761005726870
     0.0219603189823776    8.8990590140050880   -0.0123864470690730
     0.0239410082928438   -0.0277568883779265    8.9175426635822053
   Zr   Hf   Ti   N    C    Cr   Nb
     7     6     7    13    19     6     6
Direct
  0.0036503425330088  0.9930506646140652  0.9990750741401857
  0.2713111006098073  0.9986567212077719  0.2495153597328652
  0.2481291515159517  0.4961596922715913  0.2479661321372798
  0.4983257324625634  0.4996132063216391  0.0008448172803000
  0.5017187825058043  0.2444373154217285  0.7464813768450451
  0.0001062379992734  0.4997450458848031  0.5053464010515665
  0.4945925994218607  0.7599747255631635  0.7487859354605139
  0.9994130073242158  0.2459687363758838  0.2434393432563257
  0.7421495013099179  0.7539879211879693  0.0065433020878998
  0.9972071675656592  0.2455589079988247  0.7570680306201691
  0.7472909528269416  0.2407757836185684  0.4994132730070913
  0.0007787748998936  0.7571877844332583  0.7496795146811884
  0.2486336930279229  0.5001876213346814  0.7517488096253819
  0.2593812239567623  0.2394123303432570  0.9919126671260221
  0.5037262488389249  0.2577647514260319  0.2499426003557347
  0.7331936384579141  0.9921165789832030  0.2544047236380314
  0.7412224804789753  0.2464931817886610  0.0007297086388893
  0.2523298742155514  0.7504141847499737  0.9998171389747348
  0.2548753702705375  0.2459631057029520  0.5061547886237483
  0.2530867443203565  0.7535805497849051  0.4995837638172583
  0.2534481081836716  0.2463731183107046  0.2454024669910290
  0.2609202142148598  0.0012364132207210  0.9935930333450852
  0.9982717612187854  0.2482718203003986 -0.0004667750457397
  0.7458913026919792  0.2450522229464533  0.2476311655000115
  0.7404836962331324  0.0041834791332975  0.0018155438383107
  0.5124906913240487  0.0050626380331632  0.2585423175322581
  0.9952867484114513  0.4966621584992959  0.2443117457234645
  0.4951244788604179  0.7638151060322390  0.0066725764993611
  0.9995627814718668  0.0031994930921130  0.7450070037981957
  0.7519203039094807  0.2455813787386269  0.7532370253744645
  0.7465956723368830  0.9999131681011180  0.4962637759397727
  0.4980454936153098  0.2450024225893702  0.4915751568365198
  0.5077949430357589  0.0017979081865969  0.7450774354220336
  0.9981010465072752  0.9971049303724850  0.2521013405452244
  0.5025051081622618  0.2388954682964996  0.0043933475238342
  0.2555487783989268  0.7484094309162751  0.2482451649102807
  0.2390362693723874  0.5000801822635316  0.9984898553883927
  0.0037456852993285  0.7425849903131163  0.0016710679517071
  0.7443444006812351  0.7534742844052373  0.2537699579684337
  0.7603091920069709  0.4953817324576479  0.0026282064695663
  0.5026411558737210  0.4971154009546394  0.2535590240104589
  0.2487452376500230  0.2403346019081221  0.7492611770230425
  0.2597031910181989  0.9997048599535336  0.5081942428006037
  0.0030989405031203  0.2447518054304994  0.4998890217236611
  0.2463403301664649  0.7599474591746209  0.7517066594257091
  0.2549115668654940  0.4973367707114575  0.5003506470332264
  0.0010646400277777  0.7561986331731188  0.4973987412275037
  0.9965052320539316  0.5018930874226595  0.7616492098226311
  0.7482604344370397  0.7603053868630484  0.7526287397135085
  0.7455099552961690  0.5019601765703167  0.5003535043355144
  0.4954501046443421  0.7615547697300762  0.4874547564568694
  0.5019029636697107  0.5019746096408123  0.7460225061915740
  0.5159799676507815  0.0128628004950656  0.9717083860919224
  0.0021986472901608  0.5188879759819516  0.9871047878512454
  0.4976158789481906  0.7277982444325150  0.2599018474133415
  0.2427122422453088  0.0025358652249029  0.7339565752929573
  0.4823924382969781  0.9884674227608289  0.5127427979576286
  0.7281267598080653  0.9816241970577425  0.7777222920982390
  0.0078658867279721  0.7530556317733399  0.2514407434883984
  0.7470478064482142  0.5061358100742348  0.2525069272108116
  0.0173824644537196  0.0000947195994462  0.4999785712867407
  0.4983786312730453  0.5112281757242803  0.4987313220967705
  0.7490600197184578  0.5127971998660030  0.7531597548827773
  0.7465565804552348  0.7583029912549650  0.4941637269524312
 
  0.00000000E+00  0.00000000E+00  0.00000000E+00
  0.00000000E+00  0.00000000E+00  0.00000000E+00
  0.00000000E+00  0.00000000E+00  0.00000000E+00
  0.00000000E+00  0.00000000E+00  0.00000000E+00
  0.00000000E+00  0.00000000E+00  0.00000000E+00
  0.00000000E+00  0.00000000E+00  0.00000000E+00
  0.00000000E+00  0.00000000E+00  0.00000000E+00
  0.00000000E+00  0.00000000E+00  0.00000000E+00
  0.00000000E+00  0.00000000E+00  0.00000000E+00
  0.00000000E+00  0.00000000E+00  0.00000000E+00
  0.00000000E+00  0.00000000E+00  0.00000000E+00
  0.00000000E+00  0.00000000E+00  0.00000000E+00
  0.00000000E+00  0.00000000E+00  0.00000000E+00
  0.00000000E+00  0.00000000E+00  0.00000000E+00
  0.00000000E+00  0.00000000E+00  0.00000000E+00
  0.00000000E+00  0.00000000E+00  0.00000000E+00
  0.00000000E+00  0.00000000E+00  0.00000000E+00
  0.00000000E+00  0.00000000E+00  0.00000000E+00
  0.00000000E+00  0.00000000E+00  0.00000000E+00
  0.00000000E+00  0.00000000E+00  0.00000000E+00
  0.00000000E+00  0.00000000E+00  0.00000000E+00
  0.00000000E+00  0.00000000E+00  0.00000000E+00
  0.00000000E+00  0.00000000E+00  0.00000000E+00
  0.00000000E+00  0.00000000E+00  0.00000000E+00
  0.00000000E+00  0.00000000E+00  0.00000000E+00
  0.00000000E+00  0.00000000E+00  0.00000000E+00
  0.00000000E+00  0.00000000E+00  0.00000000E+00
  0.00000000E+00  0.00000000E+00  0.00000000E+00
  0.00000000E+00  0.00000000E+00  0.00000000E+00
  0.00000000E+00  0.00000000E+00  0.00000000E+00
  0.00000000E+00  0.00000000E+00  0.00000000E+00
  0.00000000E+00  0.00000000E+00  0.00000000E+00
  0.00000000E+00  0.00000000E+00  0.00000000E+00
  0.00000000E+00  0.00000000E+00  0.00000000E+00
  0.00000000E+00  0.00000000E+00  0.00000000E+00
  0.00000000E+00  0.00000000E+00  0.00000000E+00
  0.00000000E+00  0.00000000E+00  0.00000000E+00
  0.00000000E+00  0.00000000E+00  0.00000000E+00
  0.00000000E+00  0.00000000E+00  0.00000000E+00
  0.00000000E+00  0.00000000E+00  0.00000000E+00
  0.00000000E+00  0.00000000E+00  0.00000000E+00
  0.00000000E+00  0.00000000E+00  0.00000000E+00
  0.00000000E+00  0.00000000E+00  0.00000000E+00
  0.00000000E+00  0.00000000E+00  0.00000000E+00
  0.00000000E+00  0.00000000E+00  0.00000000E+00
  0.00000000E+00  0.00000000E+00  0.00000000E+00
  0.00000000E+00  0.00000000E+00  0.00000000E+00
  0.00000000E+00  0.00000000E+00  0.00000000E+00
  0.00000000E+00  0.00000000E+00  0.00000000E+00
  0.00000000E+00  0.00000000E+00  0.00000000E+00
  0.00000000E+00  0.00000000E+00  0.00000000E+00
  0.00000000E+00  0.00000000E+00  0.00000000E+00
  0.00000000E+00  0.00000000E+00  0.00000000E+00
  0.00000000E+00  0.00000000E+00  0.00000000E+00
  0.00000000E+00  0.00000000E+00  0.00000000E+00
  0.00000000E+00  0.00000000E+00  0.00000000E+00
  0.00000000E+00  0.00000000E+00  0.00000000E+00
  0.00000000E+00  0.00000000E+00  0.00000000E+00
  0.00000000E+00  0.00000000E+00  0.00000000E+00
  0.00000000E+00  0.00000000E+00  0.00000000E+00
  0.00000000E+00  0.00000000E+00  0.00000000E+00
  0.00000000E+00  0.00000000E+00  0.00000000E+00
  0.00000000E+00  0.00000000E+00  0.00000000E+00
  0.00000000E+00  0.00000000E+00  0.00000000E+00
