52-HfVNbTaW                             
   1.00000000000000     
     8.8350247963378532    0.0003568745781513    0.0296571170472724
     0.0063658464062426    8.8326503425443139   -0.0203326204205949
     0.0615465533978741   -0.0354293336316180    8.8684797892141933
  Hf              Nb              V               N               C               W               Ta            
     7     6     7    13    19     6     6
Direct
  0.0056929365991394  0.0071593801424044  0.9974804908878738
  0.2613350209965901  0.0066546231093412  0.2419213341885111
  0.2480269384785103  0.4922605163988365  0.2513628021389493
  0.4992962244227215  0.4987747615918323  0.9997895160023162
  0.5004595052563374  0.2435344020632186  0.7469806806855885
  0.0024118907434598  0.5014922868903398  0.5029390005842629
  0.4933872975872760  0.7570220552655940  0.7557824152755401
  0.9955606501662970  0.2368538774491000  0.2564023439053358
  0.7601608885424369  0.7515343429216017  0.0039371721781265
  0.0020471747494568  0.2585460926285776  0.7483732539430434
  0.7569776534378718  0.2449746815969647  0.4871914526921017
  0.0017281246380634  0.7471866737521893  0.7536542280853951
  0.2489966500613647  0.5009841172329601  0.7499778917872888
  0.2525007572481996  0.2689523257741229  0.9831949322668549
  0.5113250852033389  0.2630323336220997  0.2390457961203509
  0.7484440787639812  0.9979160562634775  0.2760627471113750
  0.7258691439527283  0.2432210565472772  0.0138710837500398
  0.2307290772828949  0.7276987102325023  0.0026839430721850
  0.2345128797009011  0.2423094412653981  0.5182552372440909
  0.2600633731538267  0.7605602712945938  0.4942576894204649
  0.2499047691710956  0.2487380946343123  0.2462934881915047
  0.2582577237128021  0.0028861979095254  0.9923824052175476
  0.9965032018143063  0.2542576005529043  0.0022023136862899
  0.7447932268408977  0.2453965500247648  0.2411368717230715
  0.7557242089611549  0.0083204045973773  0.0190982977852485
  0.5134763344065405  0.9990827284187489  0.2351436900478916
  0.9971992296785857  0.4989082644860545  0.2468926582195721
  0.4955484120679401  0.7570027570362612  0.0050874964779624
  0.9879805330541132  0.0047156698916879  0.7490984084630696
  0.7508782293047958  0.2440051363899158  0.7510548500991590
  0.7537111541052042  0.0002852335637300  0.5204440885242150
  0.5001511996837920  0.2432321651764369  0.4900483821765036
  0.4941593335023811  0.0004912187051289  0.7341273404817272
  0.9996903693110966  0.9994573780297742  0.2531733985280127
  0.4901043789020818  0.2474858522672818  0.0023047004276293
  0.2542768132943110  0.7503814457122289  0.2457392738821298
  0.2456418707775114  0.4984146835820980  0.9996433215598941
  0.0036719913589494  0.7484109545791782  0.0034721843513026
  0.7495915147375456  0.7546358792925147  0.2519617898159296
  0.7542215908212100  0.4922267894574048  0.0010658584456067
  0.5009331420123289  0.4952425285757300  0.2520151196197631
  0.2478169624005275  0.2465814138846412  0.7509059975945789
  0.2633766002529896  0.0028099786588314  0.4969662945059099
  0.0040039012352935  0.2492213291275505  0.5021833041944959
  0.2456337586343338  0.7546098615004482  0.7529999091773689
  0.2542491947898071  0.4966104147266748  0.5005947089312244
  0.0037037472535175  0.7552338153200324  0.5005739828246334
  0.9988123835819778  0.5028063245418295  0.7503919841902373
  0.7483912164104254  0.7507548441561624  0.7518084976387698
  0.7471559993708823  0.4990601833173400  0.4977360252512710
  0.4951258739044349  0.7480102311881183  0.5025756377347079
  0.5006263778669364  0.4997495306331032  0.7458288211815116
  0.5214639738639733  0.0111240320130719  0.9875273009354046
  0.0014245326812343  0.5015785437208606  0.9888888535406792
  0.4957324537246137  0.7402598501595037  0.2593055095148884
  0.2393490237652998  0.9976927453275763  0.7400036696745929
  0.5062433348732753  0.9862929472546824  0.4746572340263171
  0.7351229265803880  0.9866437719925898  0.7764841603472874
  0.0041617421671774  0.7619940375239480  0.2523027501026860
  0.7483117890351707  0.4989303072101094  0.2478448968701130
  0.0131249625346754  0.0024390024426708  0.5042435046266291
  0.4965407399171013  0.5033216747116427  0.4998272935631292
  0.7493801636763280  0.5064717914219159  0.7543701977620998
  0.7443041389755933  0.7535575812412176  0.4964296527477501
 
  0.00000000E+00  0.00000000E+00  0.00000000E+00
  0.00000000E+00  0.00000000E+00  0.00000000E+00
  0.00000000E+00  0.00000000E+00  0.00000000E+00
  0.00000000E+00  0.00000000E+00  0.00000000E+00
  0.00000000E+00  0.00000000E+00  0.00000000E+00
  0.00000000E+00  0.00000000E+00  0.00000000E+00
  0.00000000E+00  0.00000000E+00  0.00000000E+00
  0.00000000E+00  0.00000000E+00  0.00000000E+00
  0.00000000E+00  0.00000000E+00  0.00000000E+00
  0.00000000E+00  0.00000000E+00  0.00000000E+00
  0.00000000E+00  0.00000000E+00  0.00000000E+00
  0.00000000E+00  0.00000000E+00  0.00000000E+00
  0.00000000E+00  0.00000000E+00  0.00000000E+00
  0.00000000E+00  0.00000000E+00  0.00000000E+00
  0.00000000E+00  0.00000000E+00  0.00000000E+00
  0.00000000E+00  0.00000000E+00  0.00000000E+00
  0.00000000E+00  0.00000000E+00  0.00000000E+00
  0.00000000E+00  0.00000000E+00  0.00000000E+00
  0.00000000E+00  0.00000000E+00  0.00000000E+00
  0.00000000E+00  0.00000000E+00  0.00000000E+00
  0.00000000E+00  0.00000000E+00  0.00000000E+00
  0.00000000E+00  0.00000000E+00  0.00000000E+00
  0.00000000E+00  0.00000000E+00  0.00000000E+00
  0.00000000E+00  0.00000000E+00  0.00000000E+00
  0.00000000E+00  0.00000000E+00  0.00000000E+00
  0.00000000E+00  0.00000000E+00  0.00000000E+00
  0.00000000E+00  0.00000000E+00  0.00000000E+00
  0.00000000E+00  0.00000000E+00  0.00000000E+00
  0.00000000E+00  0.00000000E+00  0.00000000E+00
  0.00000000E+00  0.00000000E+00  0.00000000E+00
  0.00000000E+00  0.00000000E+00  0.00000000E+00
  0.00000000E+00  0.00000000E+00  0.00000000E+00
  0.00000000E+00  0.00000000E+00  0.00000000E+00
  0.00000000E+00  0.00000000E+00  0.00000000E+00
  0.00000000E+00  0.00000000E+00  0.00000000E+00
  0.00000000E+00  0.00000000E+00  0.00000000E+00
  0.00000000E+00  0.00000000E+00  0.00000000E+00
  0.00000000E+00  0.00000000E+00  0.00000000E+00
  0.00000000E+00  0.00000000E+00  0.00000000E+00
  0.00000000E+00  0.00000000E+00  0.00000000E+00
  0.00000000E+00  0.00000000E+00  0.00000000E+00
  0.00000000E+00  0.00000000E+00  0.00000000E+00
  0.00000000E+00  0.00000000E+00  0.00000000E+00
  0.00000000E+00  0.00000000E+00  0.00000000E+00
  0.00000000E+00  0.00000000E+00  0.00000000E+00
  0.00000000E+00  0.00000000E+00  0.00000000E+00
  0.00000000E+00  0.00000000E+00  0.00000000E+00
  0.00000000E+00  0.00000000E+00  0.00000000E+00
  0.00000000E+00  0.00000000E+00  0.00000000E+00
  0.00000000E+00  0.00000000E+00  0.00000000E+00
  0.00000000E+00  0.00000000E+00  0.00000000E+00
  0.00000000E+00  0.00000000E+00  0.00000000E+00
  0.00000000E+00  0.00000000E+00  0.00000000E+00
  0.00000000E+00  0.00000000E+00  0.00000000E+00
  0.00000000E+00  0.00000000E+00  0.00000000E+00
  0.00000000E+00  0.00000000E+00  0.00000000E+00
  0.00000000E+00  0.00000000E+00  0.00000000E+00
  0.00000000E+00  0.00000000E+00  0.00000000E+00
  0.00000000E+00  0.00000000E+00  0.00000000E+00
  0.00000000E+00  0.00000000E+00  0.00000000E+00
  0.00000000E+00  0.00000000E+00  0.00000000E+00
  0.00000000E+00  0.00000000E+00  0.00000000E+00
  0.00000000E+00  0.00000000E+00  0.00000000E+00
  0.00000000E+00  0.00000000E+00  0.00000000E+00
