42-ZrHfNbTaMo                           
   1.00000000000000     
     9.0397286713521883   -0.0087969084984639    0.0095350116290770
    -0.0031327257544234    9.0603302759630076    0.0011677651608842
     0.0420280952926755   -0.0145310510031292    9.0182386631601297
   Zr   Mo   Hf   N    C    Ta   Nb
     7     6     7    13    19     6     6
Direct
  0.9961438835255052  0.9988857185352842  0.9998594019759324
  0.2501833887397211  0.0004422736411271  0.2513974731277671
  0.2494571680905793  0.4998749073148971  0.2508529010230163
  0.5006411702336706  0.5019009898525084  0.9989969456250876
  0.5011679138904199  0.2458983735255558  0.7433962315567300
  0.9977008291985499  0.4999358780151084  0.4997228755954026
  0.4983615492471642  0.7542190548449383  0.7495119583238079
  0.9874232068266267  0.2310721654415246  0.2682421895012155
  0.7695196035853584  0.7373825506768981  0.9968847199948812
  0.0194811061623739  0.2759293700266241  0.7509623801566434
  0.7697512722139734  0.2588450562855300  0.4791441942936174
  0.9912230800000472  0.7327962727406074  0.7541590665706721
  0.2626957932354586  0.4875530589518178  0.7484120534312311
  0.2442596655163030  0.2522684963676980  0.9948784501491446
  0.5035573070747503  0.2563005900881095  0.2530791643197645
  0.7486140526108258  0.9989164231787839  0.2542912534167883
  0.7570990105899966  0.2577914520396121  0.9923544794090731
  0.2421982755718446  0.7476777565397512  0.9970861311201560
  0.2456537417420108  0.2511458597177665  0.5047955130232324
  0.2443015246102220  0.7493884358479619  0.5044260361182182
  0.2497318926942143  0.2484942292188919  0.2521092010004082
  0.2563294897802990  0.9999329375112254  0.9948124385773980
  0.0005706537272019  0.2542194966793900  0.0112495190758679
  0.7496770381612734  0.2488547607883902  0.2422730641846016
  0.7434493355024259  0.0020668988968353  0.9966757389766983
  0.5025978685749450  0.0008099495921883  0.2490277693342762
  0.9948501437779100  0.4966699525655827  0.2435071660459087
  0.4965880037613589  0.7641069942071471  0.0035549800126817
  0.9992195864312094  0.0009896268365495  0.7486011810245685
  0.7575444804935785  0.2375513768126609  0.7490424395226114
  0.7444367205125317  0.0019861165106576  0.5040192425196821
  0.5017738188833079  0.2408180827941635  0.4954061433067096
  0.5063633277593738  0.0001696694074482  0.7502239674112445
  0.9958375601585345  0.9976224873024719  0.2541645805048844
  0.5036235660168060  0.2424618250600474  0.0012041825537494
  0.2509965908596499  0.7510869507614473  0.2494748716025512
  0.2440505375504429  0.4994356605413373  0.9972534389457905
  0.0000091010107823  0.7460200438952640  0.0015082762994467
  0.7468714014940971  0.7483052979415135  0.2458470919397087
  0.7571810539465034  0.5018289383377876  0.9995417192879756
  0.5029861065439789  0.5021111131666629  0.2527921366041070
  0.2533538111317668  0.2449716234461761  0.7494257157926327
  0.2504702181391707  0.9999836594995415  0.5051618616701035
  0.9950304047499188  0.2485642271857955  0.5140276228187304
  0.2433719108261911  0.7553175286599583  0.7510038118698503
  0.2525133045261256  0.4996499299726196  0.5036982034240509
  0.9953641780742544  0.7548210994090283  0.5040252540414727
  0.0025632886535760  0.5012423921607478  0.7536128639699626
  0.7489062629179983  0.7524822219545371  0.7499724148220963
  0.7467652143968309  0.4955524614735864  0.5007307684254556
  0.4986383113449477  0.7505424227995334  0.4969702014025401
  0.5017374983826954  0.5000360913155362  0.7458017926659579
  0.5023387480361805  0.0068189945544290  0.0080625281461977
  0.9987370392467909  0.5048060681131332  0.9993245624976552
  0.5012049134613150  0.7443159228300900  0.2522123467288608
  0.2302832623111897  0.0036901067890653  0.7462715297916418
  0.4936101278495713  0.9879734630722297  0.4901687762376667
  0.7650654693124537  0.9878627210011430  0.7449111928840964
  0.9963034531967097  0.7635161873991407  0.2531762368478283
  0.7459957904147529  0.5021987239410706  0.2531605256903831
  0.9990900808308751  0.0029307844039366  0.4993050268437500
  0.4999192152350034  0.5126553382753585  0.4994882342753826
  0.7422460562580895  0.5169664649976227  0.7478196304167852
  0.7523711458745055  0.7426453632853764  0.4969260373014848
 
  0.00000000E+00  0.00000000E+00  0.00000000E+00
  0.00000000E+00  0.00000000E+00  0.00000000E+00
  0.00000000E+00  0.00000000E+00  0.00000000E+00
  0.00000000E+00  0.00000000E+00  0.00000000E+00
  0.00000000E+00  0.00000000E+00  0.00000000E+00
  0.00000000E+00  0.00000000E+00  0.00000000E+00
  0.00000000E+00  0.00000000E+00  0.00000000E+00
  0.00000000E+00  0.00000000E+00  0.00000000E+00
  0.00000000E+00  0.00000000E+00  0.00000000E+00
  0.00000000E+00  0.00000000E+00  0.00000000E+00
  0.00000000E+00  0.00000000E+00  0.00000000E+00
  0.00000000E+00  0.00000000E+00  0.00000000E+00
  0.00000000E+00  0.00000000E+00  0.00000000E+00
  0.00000000E+00  0.00000000E+00  0.00000000E+00
  0.00000000E+00  0.00000000E+00  0.00000000E+00
  0.00000000E+00  0.00000000E+00  0.00000000E+00
  0.00000000E+00  0.00000000E+00  0.00000000E+00
  0.00000000E+00  0.00000000E+00  0.00000000E+00
  0.00000000E+00  0.00000000E+00  0.00000000E+00
  0.00000000E+00  0.00000000E+00  0.00000000E+00
  0.00000000E+00  0.00000000E+00  0.00000000E+00
  0.00000000E+00  0.00000000E+00  0.00000000E+00
  0.00000000E+00  0.00000000E+00  0.00000000E+00
  0.00000000E+00  0.00000000E+00  0.00000000E+00
  0.00000000E+00  0.00000000E+00  0.00000000E+00
  0.00000000E+00  0.00000000E+00  0.00000000E+00
  0.00000000E+00  0.00000000E+00  0.00000000E+00
  0.00000000E+00  0.00000000E+00  0.00000000E+00
  0.00000000E+00  0.00000000E+00  0.00000000E+00
  0.00000000E+00  0.00000000E+00  0.00000000E+00
  0.00000000E+00  0.00000000E+00  0.00000000E+00
  0.00000000E+00  0.00000000E+00  0.00000000E+00
  0.00000000E+00  0.00000000E+00  0.00000000E+00
  0.00000000E+00  0.00000000E+00  0.00000000E+00
  0.00000000E+00  0.00000000E+00  0.00000000E+00
  0.00000000E+00  0.00000000E+00  0.00000000E+00
  0.00000000E+00  0.00000000E+00  0.00000000E+00
  0.00000000E+00  0.00000000E+00  0.00000000E+00
  0.00000000E+00  0.00000000E+00  0.00000000E+00
  0.00000000E+00  0.00000000E+00  0.00000000E+00
  0.00000000E+00  0.00000000E+00  0.00000000E+00
  0.00000000E+00  0.00000000E+00  0.00000000E+00
  0.00000000E+00  0.00000000E+00  0.00000000E+00
  0.00000000E+00  0.00000000E+00  0.00000000E+00
  0.00000000E+00  0.00000000E+00  0.00000000E+00
  0.00000000E+00  0.00000000E+00  0.00000000E+00
  0.00000000E+00  0.00000000E+00  0.00000000E+00
  0.00000000E+00  0.00000000E+00  0.00000000E+00
  0.00000000E+00  0.00000000E+00  0.00000000E+00
  0.00000000E+00  0.00000000E+00  0.00000000E+00
  0.00000000E+00  0.00000000E+00  0.00000000E+00
  0.00000000E+00  0.00000000E+00  0.00000000E+00
  0.00000000E+00  0.00000000E+00  0.00000000E+00
  0.00000000E+00  0.00000000E+00  0.00000000E+00
  0.00000000E+00  0.00000000E+00  0.00000000E+00
  0.00000000E+00  0.00000000E+00  0.00000000E+00
  0.00000000E+00  0.00000000E+00  0.00000000E+00
  0.00000000E+00  0.00000000E+00  0.00000000E+00
  0.00000000E+00  0.00000000E+00  0.00000000E+00
  0.00000000E+00  0.00000000E+00  0.00000000E+00
  0.00000000E+00  0.00000000E+00  0.00000000E+00
  0.00000000E+00  0.00000000E+00  0.00000000E+00
  0.00000000E+00  0.00000000E+00  0.00000000E+00
  0.00000000E+00  0.00000000E+00  0.00000000E+00
