92-HfVTaCrW                             
   1.00000000000000     
     8.7132115943847648   -0.0144109214574537   -0.0064142179874151
    -0.0087814124007137    8.7342858871606044    0.0113054391622062
     0.0249253856926236   -0.0040089994083830    8.7549972224329036
   V    Ta   Hf   N    C    Cr   W 
     7     6     7    13    19     6     6
Direct
  0.0064501601206107  0.9805049364559618  0.0249696301050752
  0.2336667363553032  0.9803325628837326  0.2482387882022990
  0.2717539369158564  0.5168220853348062  0.2444602151460638
  0.4984213788698214  0.4769469698642291  0.9916806192195822
  0.4788245480029998  0.2375601513801180  0.7582024158063051
  0.0040839939108799  0.4964759998530870  0.5283919367113118
  0.5066420741360109  0.7557152232515234  0.7327637060774653
 -0.0011341638604032  0.2662198635805145  0.2561395000333016
  0.7433500265654969  0.7501607100111747 -0.0023964673378753
  0.0108265042322985  0.2375377003215054  0.7460572545596506
  0.7495502186152733  0.2562148005772925  0.5129602031190541
  0.0012302479790259  0.7593928492313129  0.7494722364205728
  0.2558136576773170  0.5037473655566244  0.7543087169325177
  0.2427499307384796  0.2440842538793205  0.0022813652735316
  0.4933458201328965  0.2401018124663146  0.2474052291556494
  0.7392579447371129  0.9895626813278968  0.2563390766729643
  0.7533840726467121  0.2473731707982211  0.9901139640669820
  0.2698099013292566  0.7576395109262385 -0.0010676657912338
  0.2525815813819933  0.2517483672597715  0.4987056376558897
  0.2508384521261313  0.7508310798908691  0.4984718865652831
  0.2445104170401247  0.2527574235393306  0.2496570579013506
  0.2457195448274116  0.0002225261780737 -0.0001923200648967
 -0.0018279240911554  0.2405905315375301  0.0028510606454674
  0.7475793185748065  0.2468324704102541  0.2519099133589214
  0.7550386197218130  0.9962556577121303 -0.0025145936474370
  0.4947853074525653  0.9959804966887815  0.2263696847236059
  0.9956593799347884  0.5003229996990283  0.2468192072365487
  0.5101085852645626  0.7569257038839966 -0.0141212806786241
  0.0022164752098320  0.0007058998769435  0.7498474155931949
  0.7487562190002223  0.2450707744620240  0.7473818176897001
  0.7528537796299104  0.0044739943910223  0.5048469803323459
  0.5045710433589101  0.2461768983664330  0.5049271715318956
  0.5036946519065940  0.0029560185484192  0.7534529286261469
 -0.0013231708580259  0.0044610255265939  0.2490879894128130
  0.4984357533222636  0.2485228628573805  0.9917333505381020
  0.2635934908383768  0.7507827414033010  0.2486603860968696
  0.2474140557442696  0.5021667959228967  0.0057229209574424
  0.0039022273083877  0.7497404828073029  0.0012137426648909
  0.7446197547832853  0.7419976872375382  0.2475892842843278
  0.7563952840419321  0.5019378379468052  0.0016250021471632
  0.4921615683572875  0.5045139526432078  0.2424498020050949
  0.2546891396153422  0.2444202210739743  0.7514526448806172
  0.2544667861745570  0.0006093675817979  0.4953033973272081
 -0.0019672584598244  0.2538156581166799  0.5007968655198457
  0.2574435450720288  0.7579258678738990  0.7489968182800772
  0.2472483407880042  0.5016691665398914  0.4943821707060348
  0.9952304617595701  0.7486394579425539  0.4983792421576148
  0.9993586052143645  0.5004289811990004  0.7536981088555710
  0.7454753210970092  0.7607214331982016  0.7431203204046778
  0.7581696101923665  0.4964577764464270  0.4964080089922341
  0.5055938062369847  0.7709960171017867  0.4958547479986418
  0.5040901999654847  0.4989968884604862  0.7506650530487012
  0.5155761561834572  0.0212792413599756  0.9884843520421649
  0.0052620848959658  0.5265725922547545  0.9711261580103621
  0.5029888286961334  0.7304531380506181  0.2780974955103220
  0.2584052698595194  0.0002593347121390  0.7415801144989814
  0.4701768334369341 -0.0052384296769946  0.5367639874276972
  0.7212987713045319  0.9796988930837459  0.7767182714431264
  0.0055986757978586  0.7545216365928598  0.2496090476499031
  0.7250263385481664  0.5068246432330039  0.2430578121091071
  0.0130376628673251  0.0033048690751869  0.4860557230449172
  0.4999570892641444  0.5107312697014291  0.4997772419092971
  0.7440148495929947  0.5145795382032134  0.7545213942759372
  0.7485478539158076  0.7299653123858577  0.4983353899576656
 
  0.00000000E+00  0.00000000E+00  0.00000000E+00
  0.00000000E+00  0.00000000E+00  0.00000000E+00
  0.00000000E+00  0.00000000E+00  0.00000000E+00
  0.00000000E+00  0.00000000E+00  0.00000000E+00
  0.00000000E+00  0.00000000E+00  0.00000000E+00
  0.00000000E+00  0.00000000E+00  0.00000000E+00
  0.00000000E+00  0.00000000E+00  0.00000000E+00
  0.00000000E+00  0.00000000E+00  0.00000000E+00
  0.00000000E+00  0.00000000E+00  0.00000000E+00
  0.00000000E+00  0.00000000E+00  0.00000000E+00
  0.00000000E+00  0.00000000E+00  0.00000000E+00
  0.00000000E+00  0.00000000E+00  0.00000000E+00
  0.00000000E+00  0.00000000E+00  0.00000000E+00
  0.00000000E+00  0.00000000E+00  0.00000000E+00
  0.00000000E+00  0.00000000E+00  0.00000000E+00
  0.00000000E+00  0.00000000E+00  0.00000000E+00
  0.00000000E+00  0.00000000E+00  0.00000000E+00
  0.00000000E+00  0.00000000E+00  0.00000000E+00
  0.00000000E+00  0.00000000E+00  0.00000000E+00
  0.00000000E+00  0.00000000E+00  0.00000000E+00
  0.00000000E+00  0.00000000E+00  0.00000000E+00
  0.00000000E+00  0.00000000E+00  0.00000000E+00
  0.00000000E+00  0.00000000E+00  0.00000000E+00
  0.00000000E+00  0.00000000E+00  0.00000000E+00
  0.00000000E+00  0.00000000E+00  0.00000000E+00
  0.00000000E+00  0.00000000E+00  0.00000000E+00
  0.00000000E+00  0.00000000E+00  0.00000000E+00
  0.00000000E+00  0.00000000E+00  0.00000000E+00
  0.00000000E+00  0.00000000E+00  0.00000000E+00
  0.00000000E+00  0.00000000E+00  0.00000000E+00
  0.00000000E+00  0.00000000E+00  0.00000000E+00
  0.00000000E+00  0.00000000E+00  0.00000000E+00
  0.00000000E+00  0.00000000E+00  0.00000000E+00
  0.00000000E+00  0.00000000E+00  0.00000000E+00
  0.00000000E+00  0.00000000E+00  0.00000000E+00
  0.00000000E+00  0.00000000E+00  0.00000000E+00
  0.00000000E+00  0.00000000E+00  0.00000000E+00
  0.00000000E+00  0.00000000E+00  0.00000000E+00
  0.00000000E+00  0.00000000E+00  0.00000000E+00
  0.00000000E+00  0.00000000E+00  0.00000000E+00
  0.00000000E+00  0.00000000E+00  0.00000000E+00
  0.00000000E+00  0.00000000E+00  0.00000000E+00
  0.00000000E+00  0.00000000E+00  0.00000000E+00
  0.00000000E+00  0.00000000E+00  0.00000000E+00
  0.00000000E+00  0.00000000E+00  0.00000000E+00
  0.00000000E+00  0.00000000E+00  0.00000000E+00
  0.00000000E+00  0.00000000E+00  0.00000000E+00
  0.00000000E+00  0.00000000E+00  0.00000000E+00
  0.00000000E+00  0.00000000E+00  0.00000000E+00
  0.00000000E+00  0.00000000E+00  0.00000000E+00
  0.00000000E+00  0.00000000E+00  0.00000000E+00
  0.00000000E+00  0.00000000E+00  0.00000000E+00
  0.00000000E+00  0.00000000E+00  0.00000000E+00
  0.00000000E+00  0.00000000E+00  0.00000000E+00
  0.00000000E+00  0.00000000E+00  0.00000000E+00
  0.00000000E+00  0.00000000E+00  0.00000000E+00
  0.00000000E+00  0.00000000E+00  0.00000000E+00
  0.00000000E+00  0.00000000E+00  0.00000000E+00
  0.00000000E+00  0.00000000E+00  0.00000000E+00
  0.00000000E+00  0.00000000E+00  0.00000000E+00
  0.00000000E+00  0.00000000E+00  0.00000000E+00
  0.00000000E+00  0.00000000E+00  0.00000000E+00
  0.00000000E+00  0.00000000E+00  0.00000000E+00
  0.00000000E+00  0.00000000E+00  0.00000000E+00
