92-HfVTaCrW                             
   1.00000000000000     
     8.6756397634649041    0.0040049926620707   -0.0022915805901058
     0.0096477507893310    8.7817006320337434    0.0016521368395400
     0.0288788673774365   -0.0136209058290835    8.6932675302602771
   V    Ta   Hf   N    C    Cr   W 
     7     6     7    13    19     6     6
Direct
  0.9970734377015562  0.9907166867587465  0.9992165215057434
  0.2530914050567862  0.9951276601952697  0.2491701917647871
  0.2496551260817431  0.5035673657633065  0.2490664199731071
  0.5043406648088582  0.4958318365471762  0.9979505085263195
  0.5031350948931625  0.2450977688484157  0.7490435627576078
  0.9944859390178542  0.5036038209606417  0.4992347886519715
  0.4995424376292251  0.7562499706227898  0.7480675701148553
 -0.0029488746319852  0.2371397865083865  0.2622791892468711
  0.7548349229974600  0.7429692973794679  0.0100552273583226
  0.0024621558186076  0.2545339837940677  0.7396283658874083
  0.7518544355898266  0.2600143563978345  0.5074664382839317
 -0.0027406958704482  0.7462130844355945  0.7463242823499605
  0.2571675231787484  0.4956327142172951  0.7472674199902712
  0.2486629780323861  0.2470712342018771  0.9978066740518687
  0.5055445438559218  0.2543853115691982  0.2526569384723314
  0.7449548594038065  0.9889013189776746  0.2678691376349919
  0.7563555859656667  0.2546973232384165  0.9941608680268225
  0.2507086265666207  0.7515260245756991  0.0002102229470821
  0.2546516873812626  0.2483986785781871  0.4991923674158384
  0.2466471054862634  0.7501343543350898  0.4992724871129842
  0.2496972074489898  0.2497302044916997  0.2485536003770022
  0.2603944544192086  0.0001665038540475  0.9936693713723426
  0.0024574512312140  0.2491813337215068  0.0014620791279264
  0.7531310903023714  0.2462663110853004  0.2548027502797034
  0.7482788957716100  0.9969847306960129  0.0098346359347082
  0.5046826079443361  0.9997708829499965  0.2476585927054722
  0.9914491307180464  0.4808462493562785  0.2424883811545617
  0.5055782213002561  0.7602025629344193  0.0072319441930539
  0.9887225238090687  0.0022485556090986  0.7389202764774703
  0.7557828585525096  0.2445532179862799  0.7489009099251197
  0.7370559513066958  0.0041426307465430  0.5103773802240191
  0.5055858091605364  0.2330429196750439  0.4972862212975558
  0.5016034170436824  0.0004179923305338  0.7360454309335432
 -0.0005593357333028 -0.0009170818948327  0.2553793708191890
  0.5043435136427499  0.2474162824406245 -0.0001018540812669
  0.2513475345331563  0.7492697200033690  0.2493864526898674
  0.2444757812148380  0.5004168926077954  0.9968684526518717
  0.9980826367660639  0.7440898612522762  0.0045926985483127
  0.7547250905353672  0.7407740337696063  0.2552064474947331
  0.7570158567017560  0.5033904638770595  0.0028212779722970
  0.5032327434772378  0.5046759530515864  0.2556506419017902
  0.2504793085123057  0.2519318746799549  0.7485024478382387
  0.2480666357140623  0.9981047936170274  0.5026139383902369
  0.9979715039080069  0.2445943551847685  0.5011029078524646
  0.2434283515658148  0.7532900373452035  0.7501449923696893
  0.2566866511755125  0.5004617653059018  0.4991223638454858
  0.9915353967275935  0.7593747461633320  0.4988880027197130
  0.9925685773752152  0.5006415484140274  0.7506224038972358
  0.7475504703149570  0.7524766515045374  0.7485871169175010
  0.7447390708566908  0.4996015854669622  0.5017265841331260
  0.5046356388655768  0.7524992805976184  0.4979465974386352
  0.5039545431328422  0.5016852387805570  0.7421415301671038
  0.5161091070269205  0.0148312024483486  0.9784667375122741
 -0.0006509609510062  0.5115615537871665  0.9846674820441292
  0.5036651435573301  0.7383163773142229  0.2582856165520499
  0.2377296397675331  0.0108702462176410  0.7472081721112304
  0.4779120485145080  0.9822871887370522  0.4983172103299706
  0.7405797816070555  0.9767457271281974  0.7658980390383402
  0.0015268869975206  0.7749866376519470  0.2583551381003266
  0.7372317836647249  0.5133278109417558  0.2634934438154731
  0.0233298204843714 -0.0009523285034198  0.4976700431682169
  0.5018462465046599  0.5275286872662356  0.4994041017573039
  0.7386058997822386  0.5252230175845514  0.7409662383457000
  0.7539364317858339  0.7321289549170348  0.4928947835832242
 
  0.00000000E+00  0.00000000E+00  0.00000000E+00
  0.00000000E+00  0.00000000E+00  0.00000000E+00
  0.00000000E+00  0.00000000E+00  0.00000000E+00
  0.00000000E+00  0.00000000E+00  0.00000000E+00
  0.00000000E+00  0.00000000E+00  0.00000000E+00
  0.00000000E+00  0.00000000E+00  0.00000000E+00
  0.00000000E+00  0.00000000E+00  0.00000000E+00
  0.00000000E+00  0.00000000E+00  0.00000000E+00
  0.00000000E+00  0.00000000E+00  0.00000000E+00
  0.00000000E+00  0.00000000E+00  0.00000000E+00
  0.00000000E+00  0.00000000E+00  0.00000000E+00
  0.00000000E+00  0.00000000E+00  0.00000000E+00
  0.00000000E+00  0.00000000E+00  0.00000000E+00
  0.00000000E+00  0.00000000E+00  0.00000000E+00
  0.00000000E+00  0.00000000E+00  0.00000000E+00
  0.00000000E+00  0.00000000E+00  0.00000000E+00
  0.00000000E+00  0.00000000E+00  0.00000000E+00
  0.00000000E+00  0.00000000E+00  0.00000000E+00
  0.00000000E+00  0.00000000E+00  0.00000000E+00
  0.00000000E+00  0.00000000E+00  0.00000000E+00
  0.00000000E+00  0.00000000E+00  0.00000000E+00
  0.00000000E+00  0.00000000E+00  0.00000000E+00
  0.00000000E+00  0.00000000E+00  0.00000000E+00
  0.00000000E+00  0.00000000E+00  0.00000000E+00
  0.00000000E+00  0.00000000E+00  0.00000000E+00
  0.00000000E+00  0.00000000E+00  0.00000000E+00
  0.00000000E+00  0.00000000E+00  0.00000000E+00
  0.00000000E+00  0.00000000E+00  0.00000000E+00
  0.00000000E+00  0.00000000E+00  0.00000000E+00
  0.00000000E+00  0.00000000E+00  0.00000000E+00
  0.00000000E+00  0.00000000E+00  0.00000000E+00
  0.00000000E+00  0.00000000E+00  0.00000000E+00
  0.00000000E+00  0.00000000E+00  0.00000000E+00
  0.00000000E+00  0.00000000E+00  0.00000000E+00
  0.00000000E+00  0.00000000E+00  0.00000000E+00
  0.00000000E+00  0.00000000E+00  0.00000000E+00
  0.00000000E+00  0.00000000E+00  0.00000000E+00
  0.00000000E+00  0.00000000E+00  0.00000000E+00
  0.00000000E+00  0.00000000E+00  0.00000000E+00
  0.00000000E+00  0.00000000E+00  0.00000000E+00
  0.00000000E+00  0.00000000E+00  0.00000000E+00
  0.00000000E+00  0.00000000E+00  0.00000000E+00
  0.00000000E+00  0.00000000E+00  0.00000000E+00
  0.00000000E+00  0.00000000E+00  0.00000000E+00
  0.00000000E+00  0.00000000E+00  0.00000000E+00
  0.00000000E+00  0.00000000E+00  0.00000000E+00
  0.00000000E+00  0.00000000E+00  0.00000000E+00
  0.00000000E+00  0.00000000E+00  0.00000000E+00
  0.00000000E+00  0.00000000E+00  0.00000000E+00
  0.00000000E+00  0.00000000E+00  0.00000000E+00
  0.00000000E+00  0.00000000E+00  0.00000000E+00
  0.00000000E+00  0.00000000E+00  0.00000000E+00
  0.00000000E+00  0.00000000E+00  0.00000000E+00
  0.00000000E+00  0.00000000E+00  0.00000000E+00
  0.00000000E+00  0.00000000E+00  0.00000000E+00
  0.00000000E+00  0.00000000E+00  0.00000000E+00
  0.00000000E+00  0.00000000E+00  0.00000000E+00
  0.00000000E+00  0.00000000E+00  0.00000000E+00
  0.00000000E+00  0.00000000E+00  0.00000000E+00
  0.00000000E+00  0.00000000E+00  0.00000000E+00
  0.00000000E+00  0.00000000E+00  0.00000000E+00
  0.00000000E+00  0.00000000E+00  0.00000000E+00
  0.00000000E+00  0.00000000E+00  0.00000000E+00
  0.00000000E+00  0.00000000E+00  0.00000000E+00
