65-TiHfVCrMo                            
   1.00000000000000     
     8.6481899967870497    0.0068651192048045   -0.0066222131868236
     0.0126303885297979    8.6955919669553783   -0.0201842358388076
     0.0244568351415480   -0.0350147703265791    8.6605274680185538
  Hf              V               Ti              N               C               Cr              Mo            
     7     6     7    13    19     6     6
Direct
  0.9990016607346146  0.0024179005316636  0.9931725676799305
  0.2670179393072659  0.0019486751727339  0.2477645702987119
  0.2388502202312087  0.4935008450628670  0.2463856329581863
  0.4994523823368474  0.5005081820409020  0.9992666131098693
  0.5163106905742052  0.2456686448482044  0.7390597661017910
  0.9961610589435309  0.5003185481029253  0.5012910405855771
  0.4920545045754379  0.7581088482870640  0.7559206761160846
  0.9882949933373825  0.2274038966434596  0.2629460709737202
  0.7697329865339938  0.7374128079007140  0.0072338098352030
  0.0009202107216631  0.2550043925352021  0.7423419386401650
  0.7642540287523313  0.2304050042537173  0.4823770680985823
  0.0016489937449381  0.7368825622273547  0.7589977634017383
  0.2448382286072355  0.4840109974252553  0.7505783464097199
  0.2493598115881922  0.2459131774673353  0.9898422308307909
  0.5118000038100539  0.2558508098762770  0.2541712531223361
  0.7377183891775733  0.9946311195803429  0.2507317423057239
  0.7574080746732533  0.2575580622256927  0.0037716621752414
  0.2424191966381651  0.7472230886477200  0.9969629098849793
  0.2501599409444522  0.2490683665774962  0.5035804107686979
  0.2455155552746434  0.7517423224216130  0.5067481462688078
  0.2502207693841754  0.2473052522126312  0.2495264229757789
  0.2545886245630683  0.0021677705292951  0.9930924333211831
  0.0023685745417682  0.2546159349650142  0.0001621745442466
  0.7531546779248327  0.2466879501243647  0.2494259054555325
  0.7472111798945866  0.9984658335809118  0.0037643355684547
  0.5092609128534530  0.0051923456441585  0.2456345347060763
  0.9914084603120592  0.4909643873508407  0.2458231376957321
  0.4983317530793990  0.7594631821416697  0.0058510358910504
  0.9842041908358028  0.0095533593889192  0.7450061669783700
  0.7628421724737325  0.2512165426192331  0.7500768890640359
  0.7429446541961542  0.0113187796281229  0.4976347825078417
  0.5051388443492936  0.2475285489086397  0.4909447519989940
  0.5261540130764160  0.0004975611836495  0.7484657041069906
  0.9970409658056960  0.0038058641832689  0.2518315452065131
  0.5055440525752156  0.2408336975202311  0.0003755279012941
  0.2536806307347484  0.7488085297319874  0.2507150332646813
  0.2409684452409804  0.4980321012639000  0.9903208939519151
  0.9998246641264281  0.7405155103027189  0.0004773318963058
  0.7399519207058334  0.7512052625312534  0.2432077799531459
  0.7625250666940141  0.5027910716831704  0.0046903107189547
  0.4947993385514360  0.4990537367374135  0.2513389095426137
  0.2466907376470988  0.2484501728794382  0.7467921691949581
  0.2573108109080413  0.0020144870132803  0.5128177907098861
  0.9995655046007842  0.2482016205701152  0.5014401530543126
  0.2358149450967416  0.7552133855294434  0.7526688753165495
  0.2517421466648350  0.4994961845698291  0.5060878747904511
  0.9974686915119670  0.7561387472787017  0.5090624807313263
  0.0051168940871099  0.5000884872320591  0.7548889242126984
  0.7553445662394749  0.7551083086762849  0.7571400987575562
  0.7446491680578609  0.4946589511119063  0.5050947691493047
  0.4942111772377665  0.7625935198717937  0.4909067280188527
  0.4967466454364329  0.5020497934015661  0.7449035429556417
  0.5231164993045413  0.0106225294639765  0.9782494620839444
  0.9986400642458357  0.5036607274066044  0.9791389839153755
  0.4917371544204099  0.7293459749411801  0.2584498410801040
  0.2155189209499432  0.0191434887761074  0.7367325488607709
  0.4872360911629047  0.9849901656418222  0.5204374514729170
  0.7466953026769978  0.9674162482485910  0.7833895302158665
  0.0035678233235551  0.7691762638960720  0.2527878441012928
  0.7376092514352341  0.5111513128720733  0.2581626036097602
  0.0097669757333929  0.0035148125981667  0.5019338184221980
  0.5032538384862818  0.5190729802247782  0.4940259823869924
  0.7542973539271706  0.5177752154495107  0.7529140856359868
  0.7488170304195206  0.7545148992867693  0.4904647505077079
 
  0.00000000E+00  0.00000000E+00  0.00000000E+00
  0.00000000E+00  0.00000000E+00  0.00000000E+00
  0.00000000E+00  0.00000000E+00  0.00000000E+00
  0.00000000E+00  0.00000000E+00  0.00000000E+00
  0.00000000E+00  0.00000000E+00  0.00000000E+00
  0.00000000E+00  0.00000000E+00  0.00000000E+00
  0.00000000E+00  0.00000000E+00  0.00000000E+00
  0.00000000E+00  0.00000000E+00  0.00000000E+00
  0.00000000E+00  0.00000000E+00  0.00000000E+00
  0.00000000E+00  0.00000000E+00  0.00000000E+00
  0.00000000E+00  0.00000000E+00  0.00000000E+00
  0.00000000E+00  0.00000000E+00  0.00000000E+00
  0.00000000E+00  0.00000000E+00  0.00000000E+00
  0.00000000E+00  0.00000000E+00  0.00000000E+00
  0.00000000E+00  0.00000000E+00  0.00000000E+00
  0.00000000E+00  0.00000000E+00  0.00000000E+00
  0.00000000E+00  0.00000000E+00  0.00000000E+00
  0.00000000E+00  0.00000000E+00  0.00000000E+00
  0.00000000E+00  0.00000000E+00  0.00000000E+00
  0.00000000E+00  0.00000000E+00  0.00000000E+00
  0.00000000E+00  0.00000000E+00  0.00000000E+00
  0.00000000E+00  0.00000000E+00  0.00000000E+00
  0.00000000E+00  0.00000000E+00  0.00000000E+00
  0.00000000E+00  0.00000000E+00  0.00000000E+00
  0.00000000E+00  0.00000000E+00  0.00000000E+00
  0.00000000E+00  0.00000000E+00  0.00000000E+00
  0.00000000E+00  0.00000000E+00  0.00000000E+00
  0.00000000E+00  0.00000000E+00  0.00000000E+00
  0.00000000E+00  0.00000000E+00  0.00000000E+00
  0.00000000E+00  0.00000000E+00  0.00000000E+00
  0.00000000E+00  0.00000000E+00  0.00000000E+00
  0.00000000E+00  0.00000000E+00  0.00000000E+00
  0.00000000E+00  0.00000000E+00  0.00000000E+00
  0.00000000E+00  0.00000000E+00  0.00000000E+00
  0.00000000E+00  0.00000000E+00  0.00000000E+00
  0.00000000E+00  0.00000000E+00  0.00000000E+00
  0.00000000E+00  0.00000000E+00  0.00000000E+00
  0.00000000E+00  0.00000000E+00  0.00000000E+00
  0.00000000E+00  0.00000000E+00  0.00000000E+00
  0.00000000E+00  0.00000000E+00  0.00000000E+00
  0.00000000E+00  0.00000000E+00  0.00000000E+00
  0.00000000E+00  0.00000000E+00  0.00000000E+00
  0.00000000E+00  0.00000000E+00  0.00000000E+00
  0.00000000E+00  0.00000000E+00  0.00000000E+00
  0.00000000E+00  0.00000000E+00  0.00000000E+00
  0.00000000E+00  0.00000000E+00  0.00000000E+00
  0.00000000E+00  0.00000000E+00  0.00000000E+00
  0.00000000E+00  0.00000000E+00  0.00000000E+00
  0.00000000E+00  0.00000000E+00  0.00000000E+00
  0.00000000E+00  0.00000000E+00  0.00000000E+00
  0.00000000E+00  0.00000000E+00  0.00000000E+00
  0.00000000E+00  0.00000000E+00  0.00000000E+00
  0.00000000E+00  0.00000000E+00  0.00000000E+00
  0.00000000E+00  0.00000000E+00  0.00000000E+00
  0.00000000E+00  0.00000000E+00  0.00000000E+00
  0.00000000E+00  0.00000000E+00  0.00000000E+00
  0.00000000E+00  0.00000000E+00  0.00000000E+00
  0.00000000E+00  0.00000000E+00  0.00000000E+00
  0.00000000E+00  0.00000000E+00  0.00000000E+00
  0.00000000E+00  0.00000000E+00  0.00000000E+00
  0.00000000E+00  0.00000000E+00  0.00000000E+00
  0.00000000E+00  0.00000000E+00  0.00000000E+00
  0.00000000E+00  0.00000000E+00  0.00000000E+00
  0.00000000E+00  0.00000000E+00  0.00000000E+00
