108-ZrHfVTaCr                           
   1.00000000000000     
     8.7907159330831455    0.0058220227785416   -0.0229027303776091
     0.0113989288128624    8.8422685994029937   -0.0282292169704780
     0.0086883177628504   -0.0433882831569802    8.8254382316627744
   Hf   V    Zr   N    C    Cr   Ta
     7     6     7    13    19     6     6
Direct
 -0.0002829061010336  0.9874510513410992  0.9890204594458550
  0.2509580276971836  0.9946026676229927  0.2650956580828085
  0.2560327119696145  0.5079297348545337  0.2446071642584138
  0.5003725251667258  0.4897006719357599  0.9950116036141947
  0.4872172391785038  0.2449617144882942  0.7486358474501247
  0.0002930305115525  0.4969986049280264  0.5087644376631392
  0.5068965347692400  0.7582591173961954  0.7514937034771954
  0.9942753748364423  0.2346315101193282  0.2723145933022843
  0.7607884058881011  0.7451825472572806 -0.0048543485812402
  0.0116663266213162  0.2508140915071910  0.7314233348365399
  0.7595059854062932  0.2678916757751065  0.5092089865121683
  0.0007670879236740  0.7455250727907136  0.7593369863375509
  0.2421425279549051  0.5090520923174948  0.7591108487712833
  0.2387152540065154  0.2465687802982782 -0.0008865286878813
  0.5029349815684399  0.2451118502983906  0.2495334569152157
  0.7427500166984810  0.9961839788074218  0.2519445734262295
  0.7580801587723184  0.2490255287295258  0.9846808259671945
  0.2642237755123084  0.7589085840071287  0.0014538621686035
  0.2506098670966618  0.2502259796302156  0.5014169796667676
  0.2472331848686710  0.7502441629581766  0.5064568874918314
  0.2422350197150707  0.2496648832691315  0.2511191423744059
  0.2479889163581403  0.0018357735666179  0.9978812776835924
 -0.0019723722052164  0.2364351284278505  0.0021141714140369
  0.7596134090018006  0.2525579688406671  0.2548819529202681
  0.7453327623038738  0.9884370209168616 -0.0084977560532800
  0.4928877771122591  0.9884571152923183  0.2518452948733008
  0.9984262609055581  0.4964646724348711  0.2530017211635510
  0.5155678440667625  0.7590680160325741 -0.0010636714747146
  0.9831409727843929  0.0054328101333499  0.7486504665695799
  0.7563721076162857  0.2555493484050828  0.7365736673793579
  0.7451862830402057 -0.0017253169039063  0.5099909108626284
  0.5109590718648882  0.2553740883497057  0.5016607509424794
  0.5172643557613270  0.0066715977366595  0.7378800775219244
 -0.0007270179552067  0.0008209442270913  0.2496854926763925
  0.5002860244654181  0.2443867987459806 -0.0059278816369512
  0.2518666099573465  0.7491445923303771  0.2529779679500110
  0.2414435173495781  0.5036109958770022  0.9958599873888939
  0.9998002801682774  0.7471390106684898 -0.0033587528642476
  0.7444454313977610  0.7449084069175702  0.2465108193768719
  0.7611770919359071  0.5076964811225232 -0.0009188486318179
  0.5021518413945008  0.5073551216510687  0.2492135561917183
  0.2452825635391084  0.2471005738231690  0.7501812218443756
  0.2580668451561035 -0.0017588754633548  0.5171214422387160
  0.9932520561117378  0.2483670974553602  0.5024283470086789
  0.2465469769846082  0.7570577955740154  0.7539774684229595
  0.2511052094782105  0.5002518537072436  0.5050831360567906
  0.9931663001838645  0.7507562669133722  0.5048291627211859
  0.0052556016208072  0.5001995605663642  0.7575671206880721
  0.7587710701093106  0.7530837229128550  0.7552076976061696
  0.7503175725222467  0.4985405728916227  0.4999943053557035
  0.5018597647376257  0.7553389019548098  0.5005938733241099
  0.4981724764549569  0.5030197695373677  0.7484526208821146
  0.5233504787515765  0.0197600666066047  0.9630820422758355
  0.0019542346842758  0.5310360854385890  0.9758324352009106
  0.5033033677320954  0.7504916963407637  0.2708891186984754
  0.2162965605391610 -0.0088928643929740  0.7403329396456776
  0.4865252688425852  0.9761225413868589  0.4843476949467443
  0.7314107328087033  0.9689375358367996  0.7690654876706006
 -0.0038276469615625  0.7559352966927257  0.2475561250065524
  0.7483453990067954  0.5021393143670182  0.2462969930764560
 -0.0021615738442327  0.0022878364590477  0.5094001363602380
  0.4994752362906678  0.5066081967421834  0.5008564408999058
  0.7552658507712346  0.5078310326097024  0.7516626305650634
  0.7496397330952523  0.7472308979348168  0.5013920167584012
 
  0.00000000E+00  0.00000000E+00  0.00000000E+00
  0.00000000E+00  0.00000000E+00  0.00000000E+00
  0.00000000E+00  0.00000000E+00  0.00000000E+00
  0.00000000E+00  0.00000000E+00  0.00000000E+00
  0.00000000E+00  0.00000000E+00  0.00000000E+00
  0.00000000E+00  0.00000000E+00  0.00000000E+00
  0.00000000E+00  0.00000000E+00  0.00000000E+00
  0.00000000E+00  0.00000000E+00  0.00000000E+00
  0.00000000E+00  0.00000000E+00  0.00000000E+00
  0.00000000E+00  0.00000000E+00  0.00000000E+00
  0.00000000E+00  0.00000000E+00  0.00000000E+00
  0.00000000E+00  0.00000000E+00  0.00000000E+00
  0.00000000E+00  0.00000000E+00  0.00000000E+00
  0.00000000E+00  0.00000000E+00  0.00000000E+00
  0.00000000E+00  0.00000000E+00  0.00000000E+00
  0.00000000E+00  0.00000000E+00  0.00000000E+00
  0.00000000E+00  0.00000000E+00  0.00000000E+00
  0.00000000E+00  0.00000000E+00  0.00000000E+00
  0.00000000E+00  0.00000000E+00  0.00000000E+00
  0.00000000E+00  0.00000000E+00  0.00000000E+00
  0.00000000E+00  0.00000000E+00  0.00000000E+00
  0.00000000E+00  0.00000000E+00  0.00000000E+00
  0.00000000E+00  0.00000000E+00  0.00000000E+00
  0.00000000E+00  0.00000000E+00  0.00000000E+00
  0.00000000E+00  0.00000000E+00  0.00000000E+00
  0.00000000E+00  0.00000000E+00  0.00000000E+00
  0.00000000E+00  0.00000000E+00  0.00000000E+00
  0.00000000E+00  0.00000000E+00  0.00000000E+00
  0.00000000E+00  0.00000000E+00  0.00000000E+00
  0.00000000E+00  0.00000000E+00  0.00000000E+00
  0.00000000E+00  0.00000000E+00  0.00000000E+00
  0.00000000E+00  0.00000000E+00  0.00000000E+00
  0.00000000E+00  0.00000000E+00  0.00000000E+00
  0.00000000E+00  0.00000000E+00  0.00000000E+00
  0.00000000E+00  0.00000000E+00  0.00000000E+00
  0.00000000E+00  0.00000000E+00  0.00000000E+00
  0.00000000E+00  0.00000000E+00  0.00000000E+00
  0.00000000E+00  0.00000000E+00  0.00000000E+00
  0.00000000E+00  0.00000000E+00  0.00000000E+00
  0.00000000E+00  0.00000000E+00  0.00000000E+00
  0.00000000E+00  0.00000000E+00  0.00000000E+00
  0.00000000E+00  0.00000000E+00  0.00000000E+00
  0.00000000E+00  0.00000000E+00  0.00000000E+00
  0.00000000E+00  0.00000000E+00  0.00000000E+00
  0.00000000E+00  0.00000000E+00  0.00000000E+00
  0.00000000E+00  0.00000000E+00  0.00000000E+00
  0.00000000E+00  0.00000000E+00  0.00000000E+00
  0.00000000E+00  0.00000000E+00  0.00000000E+00
  0.00000000E+00  0.00000000E+00  0.00000000E+00
  0.00000000E+00  0.00000000E+00  0.00000000E+00
  0.00000000E+00  0.00000000E+00  0.00000000E+00
  0.00000000E+00  0.00000000E+00  0.00000000E+00
  0.00000000E+00  0.00000000E+00  0.00000000E+00
  0.00000000E+00  0.00000000E+00  0.00000000E+00
  0.00000000E+00  0.00000000E+00  0.00000000E+00
  0.00000000E+00  0.00000000E+00  0.00000000E+00
  0.00000000E+00  0.00000000E+00  0.00000000E+00
  0.00000000E+00  0.00000000E+00  0.00000000E+00
  0.00000000E+00  0.00000000E+00  0.00000000E+00
  0.00000000E+00  0.00000000E+00  0.00000000E+00
  0.00000000E+00  0.00000000E+00  0.00000000E+00
  0.00000000E+00  0.00000000E+00  0.00000000E+00
  0.00000000E+00  0.00000000E+00  0.00000000E+00
  0.00000000E+00  0.00000000E+00  0.00000000E+00
