83-ZrVNbCrMo                            
   1.00000000000000     
     8.7436863198028032   -0.0208488892208450   -0.0033637321313403
    -0.0152941747125019    8.7633808163926084    0.0074016794744876
     0.0281471342590531   -0.0078278814307600    8.7879845466841555
   V    Nb   Zr   N    C    Cr   Mo
     7     6     7    13    19     6     6
Direct
  0.0034454592296418  0.9807018171075501  0.0254834521788842
  0.2337335640300177  0.9783961153173115  0.2492874266313176
  0.2697041125031489  0.5181112989259377  0.2443723099733883
  0.5008540205132728  0.4803946617778620  0.9887916063975329
  0.4788006113660209  0.2391752575251420  0.7545957868880008
  0.0025156081709906  0.4984742058440230  0.5289215903753569
  0.5068391672675998  0.7495704499704383  0.7333473497544359
  0.9963381480708338  0.2745744548786454  0.2575660493411228
  0.7444110032480366  0.7481308299251472 -0.0000289934468377
  0.0112731303133591  0.2341096865960214  0.7446060346747289
  0.7504009628606590  0.2583685547300836  0.5144981469179684
  0.0003939923401408  0.7599369973510859  0.7482793949352812
  0.2542855681268991  0.5037101648492501  0.7539221666294847
  0.2414381453413142  0.2454052455001900  0.0029255518867704
  0.4947667050935909  0.2411904104005167  0.2479625337782627
  0.7407420080860754  0.9896734121831064  0.2603644998941454
  0.7549168612912646  0.2488861003833966  0.9896868389710192
  0.2705971112458075  0.7579357690026152  0.9984630920339924
  0.2515365898157015  0.2523852041117570  0.4973108197917638
  0.2504199254229977  0.7507005029040543  0.4988550682658073
  0.2426842339461847  0.2539990993395312  0.2494807758171695
  0.2385674197989959  0.9997940244163979  0.0018528409480616
  0.9981170322730080  0.2359780615542460  0.0034974759696944
  0.7496541489539220  0.2480638531429527  0.2541785449547880
  0.7547834740484737  0.9941285340737708  0.9911596569308710
  0.4921437767682209  0.9916373639036695  0.2177560146041107
  0.0007503891527950  0.5003508812565517  0.2463194844167803
  0.5124339871327946  0.7515120739476016  0.9787459540389652
  0.0061851612036324  0.9999070913858303  0.7516303528108285
  0.7485114757413397  0.2433728431527540  0.7453752549465477
  0.7490489017334722  0.0035949806526790  0.5115241125522659
  0.5055986605682383  0.2423098791464827  0.5106662958367943
  0.5024405506812146  0.9996978182055121  0.7569724864396553
  0.0016722906675170  0.0037089476570477  0.2486344519238320
  0.4990521013999954  0.2499209335560170  0.9889244064215367
  0.2648583880914609  0.7514912907512030  0.2491432294046768
  0.2461748845032352  0.5034133769121286  0.0059154602401635
  0.0023238266283961  0.7500024389759019  0.0009516954319914
  0.7418673411005906  0.7397992372264014  0.2479545372776351
  0.7585593857336549  0.5036075737639303  0.0023517614724021
  0.4904430172909971  0.5105571798972960  0.2420080190763178
  0.2562098786140742  0.2428332348440476  0.7507559834266451
  0.2574260289226137  0.0006795306649882  0.4938680186624926
  0.9967828980480118  0.2558384052129385  0.5010974275760445
  0.2592490507470749  0.7589366290422299  0.7485746237167783
  0.2455836009638254  0.5023338924463733  0.4933937098950429
  0.9936718039336192  0.7471476401739628  0.4989488486431614
  0.9996031914373601  0.5005380365078143  0.7541593874312358
  0.7448584246121280  0.7602012926489551  0.7428136200445299
  0.7593721077430501  0.4970985086170960  0.4968920285568909
  0.5080356619187407  0.7707107343348262  0.4981703573678072
  0.5047678564431330  0.4978972862819285  0.7514469961317819
  0.5207956721861700  0.0233732359207565  0.9883545471853021
  0.0017074115754134  0.5300678007119979  0.9711634571370175
  0.5063005109552702  0.7338625432619587  0.2823589631706233
  0.2555054245639582  0.9990582883427749  0.7405418452171686
  0.4713165073463482  0.0004142770303737  0.5404970263973508
  0.7208332244128477  0.9771076543713746  0.7704687164560223
  0.0023828379222056  0.7521007373971247  0.2509950949365049
  0.7216767399994510  0.5064038509045272  0.2439310815677749
  0.0123485334047556  0.0030632386459371  0.4854894491020306
  0.5020230223633131  0.5097766376669504  0.5019101181474189
  0.7467794248765780  0.5161076426172226  0.7542506759788234
  0.7494874212545070  0.7277700311517908  0.4956646218640280
 
  0.00000000E+00  0.00000000E+00  0.00000000E+00
  0.00000000E+00  0.00000000E+00  0.00000000E+00
  0.00000000E+00  0.00000000E+00  0.00000000E+00
  0.00000000E+00  0.00000000E+00  0.00000000E+00
  0.00000000E+00  0.00000000E+00  0.00000000E+00
  0.00000000E+00  0.00000000E+00  0.00000000E+00
  0.00000000E+00  0.00000000E+00  0.00000000E+00
  0.00000000E+00  0.00000000E+00  0.00000000E+00
  0.00000000E+00  0.00000000E+00  0.00000000E+00
  0.00000000E+00  0.00000000E+00  0.00000000E+00
  0.00000000E+00  0.00000000E+00  0.00000000E+00
  0.00000000E+00  0.00000000E+00  0.00000000E+00
  0.00000000E+00  0.00000000E+00  0.00000000E+00
  0.00000000E+00  0.00000000E+00  0.00000000E+00
  0.00000000E+00  0.00000000E+00  0.00000000E+00
  0.00000000E+00  0.00000000E+00  0.00000000E+00
  0.00000000E+00  0.00000000E+00  0.00000000E+00
  0.00000000E+00  0.00000000E+00  0.00000000E+00
  0.00000000E+00  0.00000000E+00  0.00000000E+00
  0.00000000E+00  0.00000000E+00  0.00000000E+00
  0.00000000E+00  0.00000000E+00  0.00000000E+00
  0.00000000E+00  0.00000000E+00  0.00000000E+00
  0.00000000E+00  0.00000000E+00  0.00000000E+00
  0.00000000E+00  0.00000000E+00  0.00000000E+00
  0.00000000E+00  0.00000000E+00  0.00000000E+00
  0.00000000E+00  0.00000000E+00  0.00000000E+00
  0.00000000E+00  0.00000000E+00  0.00000000E+00
  0.00000000E+00  0.00000000E+00  0.00000000E+00
  0.00000000E+00  0.00000000E+00  0.00000000E+00
  0.00000000E+00  0.00000000E+00  0.00000000E+00
  0.00000000E+00  0.00000000E+00  0.00000000E+00
  0.00000000E+00  0.00000000E+00  0.00000000E+00
  0.00000000E+00  0.00000000E+00  0.00000000E+00
  0.00000000E+00  0.00000000E+00  0.00000000E+00
  0.00000000E+00  0.00000000E+00  0.00000000E+00
  0.00000000E+00  0.00000000E+00  0.00000000E+00
  0.00000000E+00  0.00000000E+00  0.00000000E+00
  0.00000000E+00  0.00000000E+00  0.00000000E+00
  0.00000000E+00  0.00000000E+00  0.00000000E+00
  0.00000000E+00  0.00000000E+00  0.00000000E+00
  0.00000000E+00  0.00000000E+00  0.00000000E+00
  0.00000000E+00  0.00000000E+00  0.00000000E+00
  0.00000000E+00  0.00000000E+00  0.00000000E+00
  0.00000000E+00  0.00000000E+00  0.00000000E+00
  0.00000000E+00  0.00000000E+00  0.00000000E+00
  0.00000000E+00  0.00000000E+00  0.00000000E+00
  0.00000000E+00  0.00000000E+00  0.00000000E+00
  0.00000000E+00  0.00000000E+00  0.00000000E+00
  0.00000000E+00  0.00000000E+00  0.00000000E+00
  0.00000000E+00  0.00000000E+00  0.00000000E+00
  0.00000000E+00  0.00000000E+00  0.00000000E+00
  0.00000000E+00  0.00000000E+00  0.00000000E+00
  0.00000000E+00  0.00000000E+00  0.00000000E+00
  0.00000000E+00  0.00000000E+00  0.00000000E+00
  0.00000000E+00  0.00000000E+00  0.00000000E+00
  0.00000000E+00  0.00000000E+00  0.00000000E+00
  0.00000000E+00  0.00000000E+00  0.00000000E+00
  0.00000000E+00  0.00000000E+00  0.00000000E+00
  0.00000000E+00  0.00000000E+00  0.00000000E+00
  0.00000000E+00  0.00000000E+00  0.00000000E+00
  0.00000000E+00  0.00000000E+00  0.00000000E+00
  0.00000000E+00  0.00000000E+00  0.00000000E+00
  0.00000000E+00  0.00000000E+00  0.00000000E+00
  0.00000000E+00  0.00000000E+00  0.00000000E+00
