83-ZrVNbCrMo                            
   1.00000000000000     
     8.7432927135142435   -0.0196774961792460   -0.0035460526054796
    -0.0141102142583119    8.7674048193603635    0.0061714677094546
     0.0279585193051218   -0.0090623455793525    8.7882927229497714
   V    Nb   Zr   N    C    Cr   Mo
     7     6     7    13    19     6     6
Direct
  0.0035432401597617  0.9807971318413616  0.0259866583627039
  0.2337632305923072  0.9779462225941035  0.2492730071664550
  0.2695990746281569  0.5180719829244933  0.2442185115926842
  0.5008634564412681  0.4801877118793514  0.9884122918261051
  0.4786095147955069  0.2383504150017859  0.7544858193762196
  0.0026321178710868  0.4985623911975208  0.5290536616507332
  0.5066875596583182  0.7499191802709355  0.7332811042860857
  0.9964031909115746  0.2748788516325365  0.2575521717985781
  0.7443438998303421  0.7480918113771768  0.0002943366593575
  0.0114533766270783  0.2336737247252285  0.7444082276175628
  0.7503368939395446  0.2585839353247650  0.5146807441614262
  0.0005135228090546  0.7600184585963378  0.7481617094293073
  0.2543387633146021  0.5037398040678803  0.7537956584325097
  0.2414401201418996  0.2452508353954715  0.0028408325140217
  0.4948282495701467  0.2416920596297993  0.2477833271552948
  0.7404029479288184  0.9897754264906695  0.2605259972795791
  0.7551740902267358  0.2490162646176541  0.9895854070405812
  0.2707146856537652  0.7578464196383202  0.9984498005032435
  0.2515993146623168  0.2523622338512602  0.4971091449331138
  0.2503914821589012  0.7505570160179811  0.4988154967165918
  0.2426882074119999  0.2542263782367965  0.2493550932446597
  0.2382743534315558  0.9996172413902137  0.0027156886171221
  0.9982245057676167  0.2350263208160294  0.0034649108765971
  0.7496869960950241  0.2482010840677152  0.2540993153473192
  0.7546621179543954  0.9940865553447752  0.9911791188257998
  0.4921837832558612  0.9925171151793795  0.2179885072254348
  0.0008519658479214  0.5001796184660725  0.2464436636239137
  0.5124258733805384  0.7514489432568833  0.9790286933682142
  0.0067300818239511  0.9998030839505696  0.7509795802668384
  0.7489988712794700  0.2439479627484377  0.7454210977997652
  0.7490234529796681  0.0041066934089450  0.5112440808224269
  0.5055973962344414  0.2425636255446433  0.5105976566621862
  0.5025417581996036  0.9997907740426393  0.7569211059459421
  0.0015614834590256  0.0035526497109808  0.2487220949739731
  0.4991641537495489  0.2498282576822350  0.9887141374520060
  0.2646460085818613  0.7513080262230672  0.2491131227605370
  0.2462473022656606  0.5033398299642583  0.0056300685750092
  0.0023201524542265  0.7502001938246916  0.0009385401003400
  0.7415866816226024  0.7399120755108273  0.2480935151840067
  0.7587390549044779  0.5037247846147299  0.0025745512164737
  0.4903232961680665  0.5105882876521517  0.2421300269365720
  0.2562087159479782  0.2426613088788649  0.7506135995614793
  0.2572981048508112  0.0005604416118049  0.4939882751663973
  0.9967830804604575  0.2556685853024103  0.5009861231089364
  0.2592240479129907  0.7588697248222592  0.7485195315741489
  0.2455873800179807  0.5022680796129190  0.4935707213873097
  0.9936122391197830  0.7471992309508083  0.4989117342397149
  0.9996768120039691  0.5006188352768581  0.7541389680419882
  0.7448388026605482  0.7600699800446906  0.7429679860804184
  0.7593291430583318  0.4972025616298882  0.4971435577135239
  0.5080095090965870  0.7707129602664720  0.4981640290526569
  0.5048139271601018  0.4981289286972742  0.7513945822820176
  0.5211772693612881  0.0236311946283881  0.9884524436076210
  0.0016538724255025  0.5306078977144917  0.9708904780423228
  0.5061031067968442  0.7334804604586095  0.2825318799872588
  0.2553415205565369  0.9989217799905568  0.7401476411072185
  0.4711598078670893  0.0002706850812825  0.5403071388158776
  0.7206037457352652  0.9764225231077693  0.7707537020044350
  0.0022922550232286  0.7520989479105964  0.2509991106684090
  0.7214749542305754  0.5065531989058800  0.2442695141369735
  0.0125006317386926  0.0028831615244565  0.4852084532065768
  0.5019148785638745  0.5098376560836696  0.5020434830851098
  0.7468310857377494  0.5164681759836649  0.7543500241357228
  0.7494492568850716  0.7275720538057081  0.4955786806665899
 
  0.00000000E+00  0.00000000E+00  0.00000000E+00
  0.00000000E+00  0.00000000E+00  0.00000000E+00
  0.00000000E+00  0.00000000E+00  0.00000000E+00
  0.00000000E+00  0.00000000E+00  0.00000000E+00
  0.00000000E+00  0.00000000E+00  0.00000000E+00
  0.00000000E+00  0.00000000E+00  0.00000000E+00
  0.00000000E+00  0.00000000E+00  0.00000000E+00
  0.00000000E+00  0.00000000E+00  0.00000000E+00
  0.00000000E+00  0.00000000E+00  0.00000000E+00
  0.00000000E+00  0.00000000E+00  0.00000000E+00
  0.00000000E+00  0.00000000E+00  0.00000000E+00
  0.00000000E+00  0.00000000E+00  0.00000000E+00
  0.00000000E+00  0.00000000E+00  0.00000000E+00
  0.00000000E+00  0.00000000E+00  0.00000000E+00
  0.00000000E+00  0.00000000E+00  0.00000000E+00
  0.00000000E+00  0.00000000E+00  0.00000000E+00
  0.00000000E+00  0.00000000E+00  0.00000000E+00
  0.00000000E+00  0.00000000E+00  0.00000000E+00
  0.00000000E+00  0.00000000E+00  0.00000000E+00
  0.00000000E+00  0.00000000E+00  0.00000000E+00
  0.00000000E+00  0.00000000E+00  0.00000000E+00
  0.00000000E+00  0.00000000E+00  0.00000000E+00
  0.00000000E+00  0.00000000E+00  0.00000000E+00
  0.00000000E+00  0.00000000E+00  0.00000000E+00
  0.00000000E+00  0.00000000E+00  0.00000000E+00
  0.00000000E+00  0.00000000E+00  0.00000000E+00
  0.00000000E+00  0.00000000E+00  0.00000000E+00
  0.00000000E+00  0.00000000E+00  0.00000000E+00
  0.00000000E+00  0.00000000E+00  0.00000000E+00
  0.00000000E+00  0.00000000E+00  0.00000000E+00
  0.00000000E+00  0.00000000E+00  0.00000000E+00
  0.00000000E+00  0.00000000E+00  0.00000000E+00
  0.00000000E+00  0.00000000E+00  0.00000000E+00
  0.00000000E+00  0.00000000E+00  0.00000000E+00
  0.00000000E+00  0.00000000E+00  0.00000000E+00
  0.00000000E+00  0.00000000E+00  0.00000000E+00
  0.00000000E+00  0.00000000E+00  0.00000000E+00
  0.00000000E+00  0.00000000E+00  0.00000000E+00
  0.00000000E+00  0.00000000E+00  0.00000000E+00
  0.00000000E+00  0.00000000E+00  0.00000000E+00
  0.00000000E+00  0.00000000E+00  0.00000000E+00
  0.00000000E+00  0.00000000E+00  0.00000000E+00
  0.00000000E+00  0.00000000E+00  0.00000000E+00
  0.00000000E+00  0.00000000E+00  0.00000000E+00
  0.00000000E+00  0.00000000E+00  0.00000000E+00
  0.00000000E+00  0.00000000E+00  0.00000000E+00
  0.00000000E+00  0.00000000E+00  0.00000000E+00
  0.00000000E+00  0.00000000E+00  0.00000000E+00
  0.00000000E+00  0.00000000E+00  0.00000000E+00
  0.00000000E+00  0.00000000E+00  0.00000000E+00
  0.00000000E+00  0.00000000E+00  0.00000000E+00
  0.00000000E+00  0.00000000E+00  0.00000000E+00
  0.00000000E+00  0.00000000E+00  0.00000000E+00
  0.00000000E+00  0.00000000E+00  0.00000000E+00
  0.00000000E+00  0.00000000E+00  0.00000000E+00
  0.00000000E+00  0.00000000E+00  0.00000000E+00
  0.00000000E+00  0.00000000E+00  0.00000000E+00
  0.00000000E+00  0.00000000E+00  0.00000000E+00
  0.00000000E+00  0.00000000E+00  0.00000000E+00
  0.00000000E+00  0.00000000E+00  0.00000000E+00
  0.00000000E+00  0.00000000E+00  0.00000000E+00
  0.00000000E+00  0.00000000E+00  0.00000000E+00
  0.00000000E+00  0.00000000E+00  0.00000000E+00
  0.00000000E+00  0.00000000E+00  0.00000000E+00
