122-HfNbCrMoW                           
   1.00000000000000     
     8.7809749952635983   -0.0125291506519012   -0.0036405343713670
    -0.0070769291643247    8.8486343056973311   -0.0150829186645889
     0.0279759390779118   -0.0303490599277671    8.8489701750057908
   Nb   W    Hf   N    C    Cr   Mo
     7     6     7    13    19     6     6
Direct
 -0.0004595458865146  0.9849922092794108  0.9929531530136307
  0.2494326369149312  0.9905063763395264  0.2633123049434575
  0.2500692645601681  0.5126791546902947  0.2429842266307231
  0.5048756078513469  0.4899622491340798  0.9938832881642500
  0.4932288740446273  0.2535556557696808  0.7478405533354150
  0.0012198384463092  0.5001105187801990  0.5035499389336923
  0.5085690947119325  0.7551775366335595  0.7386588308144795
  0.9915921760024129  0.2327081114744619  0.2683333791950236
  0.7646905585214714  0.7451789472624171 -0.0033915964592109
  0.0182963125162117  0.2527705810605010  0.7406332377815911
  0.7602048313084202  0.2577308699104330  0.4895865673834778
  0.0013824084474900  0.7444941150939854  0.7555337246661294
  0.2530176283695570  0.5054750291537961  0.7571987379095068
  0.2446613444797263  0.2448133969789635 -0.0014446404868419
  0.5003568486168766  0.2477988991381002  0.2503136445995552
  0.7341250115366513  0.9883265409572831  0.2605754008989634
  0.7550867186885517  0.2471894577842589  0.9856237283047755
  0.2691760056084509  0.7597475243555507  0.0008635620066107
  0.2559276480963062  0.2513475223479806  0.5041971790215369
  0.2479741525498222  0.7524456402112095  0.5033701865312317
  0.2464032727327800  0.2498698422087227  0.2528882297438899
  0.2529322455715734  0.0017236668321037  0.0038228254874312
 -0.0010154049628241  0.2383541331934424  0.0062690621691500
  0.7501973591368059  0.2415529959326626  0.2456279841499928
  0.7422423993754961  0.9911278983634466  0.0008794516802846
  0.4936077503902371  0.0000283705286902  0.2686524048880959
 -0.0005512360269711  0.4806695436901420  0.2563168406435661
  0.5128284446181780  0.7578861496521486 -0.0085313763281589
  0.9795676895845582  0.0087851659372985  0.7447748433369532
  0.7570902279211712  0.2491266818119841  0.7414433579687922
  0.7492199937233500  0.0167481831358174  0.5009724564033132
  0.5085043567468173  0.2507471118813533  0.4987536494015117
  0.5279421606130229  0.0027126890990309  0.7394657524582016
 -0.0055275261206298 -0.0006270138981857  0.2468865085027077
  0.5015055007695174  0.2459301831206284 -0.0033109414181612
  0.2603541726207855  0.7524305178111711  0.2524142536235612
  0.2423351352691858  0.5032118204470369  0.9972568312036713
  0.0087493666161941  0.7428593365928449  0.0050556251941645
  0.7394531380155542  0.7387974559417099  0.2411974384625215
  0.7637848907761926  0.5014931110125492  0.0079441533660176
  0.4936608703476856  0.5063493660723966  0.2444220367521104
  0.2536156862370098  0.2419340483128363  0.7506970136049582
  0.2531077095643449  0.0002342401978152  0.5178047915620447
  0.0018556325625227  0.2527075329053112  0.5060912682473050
  0.2523969616528556  0.7574145823659900  0.7520917569570511
  0.2503562238121171  0.5022630004425179  0.5009845910233175
  0.9920623163721771  0.7554028608673791  0.5045490864508765
  0.9998394415300621  0.4988399178348264  0.7557735657187689
  0.7575057110848724  0.7569213916578703  0.7407682457537429
  0.7474165810553918  0.4934454980206028  0.5066927729529042
  0.5053423012829799  0.7675748768248065  0.4921224164565047
  0.4999998066689465  0.5029724993753344  0.7438020137297148
  0.5146664389938195  0.0220009713840910  0.9549680107064031
  0.9913908798541110  0.5308325756085559  0.9719802798959200
  0.5088409121935911  0.7285127195521569  0.2803822721639042
  0.2073249546373291 -0.0072208231030046  0.7369302766788567
  0.4746029141691348  0.9949738558189249  0.5199330272526437
  0.7402353884906520  0.9692068757340425  0.7770949747112096
 -0.0058761995552977  0.7661570940863710  0.2508436480691524
  0.7288378909354466  0.5050291817326844  0.2556435056035979
  0.0076632590910290  0.0063548331268304  0.4978070009786084
  0.4965723526489388  0.5149972250449186  0.4904034291332022
  0.7465311773907597  0.5177142222008928  0.7625839552084714
  0.7489998122237577  0.7249430252855635  0.4922754382632487
 
  0.00000000E+00  0.00000000E+00  0.00000000E+00
  0.00000000E+00  0.00000000E+00  0.00000000E+00
  0.00000000E+00  0.00000000E+00  0.00000000E+00
  0.00000000E+00  0.00000000E+00  0.00000000E+00
  0.00000000E+00  0.00000000E+00  0.00000000E+00
  0.00000000E+00  0.00000000E+00  0.00000000E+00
  0.00000000E+00  0.00000000E+00  0.00000000E+00
  0.00000000E+00  0.00000000E+00  0.00000000E+00
  0.00000000E+00  0.00000000E+00  0.00000000E+00
  0.00000000E+00  0.00000000E+00  0.00000000E+00
  0.00000000E+00  0.00000000E+00  0.00000000E+00
  0.00000000E+00  0.00000000E+00  0.00000000E+00
  0.00000000E+00  0.00000000E+00  0.00000000E+00
  0.00000000E+00  0.00000000E+00  0.00000000E+00
  0.00000000E+00  0.00000000E+00  0.00000000E+00
  0.00000000E+00  0.00000000E+00  0.00000000E+00
  0.00000000E+00  0.00000000E+00  0.00000000E+00
  0.00000000E+00  0.00000000E+00  0.00000000E+00
  0.00000000E+00  0.00000000E+00  0.00000000E+00
  0.00000000E+00  0.00000000E+00  0.00000000E+00
  0.00000000E+00  0.00000000E+00  0.00000000E+00
  0.00000000E+00  0.00000000E+00  0.00000000E+00
  0.00000000E+00  0.00000000E+00  0.00000000E+00
  0.00000000E+00  0.00000000E+00  0.00000000E+00
  0.00000000E+00  0.00000000E+00  0.00000000E+00
  0.00000000E+00  0.00000000E+00  0.00000000E+00
  0.00000000E+00  0.00000000E+00  0.00000000E+00
  0.00000000E+00  0.00000000E+00  0.00000000E+00
  0.00000000E+00  0.00000000E+00  0.00000000E+00
  0.00000000E+00  0.00000000E+00  0.00000000E+00
  0.00000000E+00  0.00000000E+00  0.00000000E+00
  0.00000000E+00  0.00000000E+00  0.00000000E+00
  0.00000000E+00  0.00000000E+00  0.00000000E+00
  0.00000000E+00  0.00000000E+00  0.00000000E+00
  0.00000000E+00  0.00000000E+00  0.00000000E+00
  0.00000000E+00  0.00000000E+00  0.00000000E+00
  0.00000000E+00  0.00000000E+00  0.00000000E+00
  0.00000000E+00  0.00000000E+00  0.00000000E+00
  0.00000000E+00  0.00000000E+00  0.00000000E+00
  0.00000000E+00  0.00000000E+00  0.00000000E+00
  0.00000000E+00  0.00000000E+00  0.00000000E+00
  0.00000000E+00  0.00000000E+00  0.00000000E+00
  0.00000000E+00  0.00000000E+00  0.00000000E+00
  0.00000000E+00  0.00000000E+00  0.00000000E+00
  0.00000000E+00  0.00000000E+00  0.00000000E+00
  0.00000000E+00  0.00000000E+00  0.00000000E+00
  0.00000000E+00  0.00000000E+00  0.00000000E+00
  0.00000000E+00  0.00000000E+00  0.00000000E+00
  0.00000000E+00  0.00000000E+00  0.00000000E+00
  0.00000000E+00  0.00000000E+00  0.00000000E+00
  0.00000000E+00  0.00000000E+00  0.00000000E+00
  0.00000000E+00  0.00000000E+00  0.00000000E+00
  0.00000000E+00  0.00000000E+00  0.00000000E+00
  0.00000000E+00  0.00000000E+00  0.00000000E+00
  0.00000000E+00  0.00000000E+00  0.00000000E+00
  0.00000000E+00  0.00000000E+00  0.00000000E+00
  0.00000000E+00  0.00000000E+00  0.00000000E+00
  0.00000000E+00  0.00000000E+00  0.00000000E+00
  0.00000000E+00  0.00000000E+00  0.00000000E+00
  0.00000000E+00  0.00000000E+00  0.00000000E+00
  0.00000000E+00  0.00000000E+00  0.00000000E+00
  0.00000000E+00  0.00000000E+00  0.00000000E+00
  0.00000000E+00  0.00000000E+00  0.00000000E+00
  0.00000000E+00  0.00000000E+00  0.00000000E+00
