104-TiHfVTaCr                           
   1.00000000000000     
     8.6900912624389566    0.0179317115550668    0.0029892672111945
     0.0238350415183572    8.7015775931879524   -0.0293338062404939
     0.0342704073017705   -0.0440656598963271    8.7162825503187520
   Hf   V    Ti   N    C    Cr   Ta
     7     6     7    13    19     6     6
Direct
 -0.0013635047519534  0.0037895515807149  0.9918037799411291
  0.2606252280070818  0.0022489070735406  0.2477763244921311
  0.2450932042288202  0.4939742715614607  0.2471090650858722
  0.4973193201068370  0.4998587822992485  0.0007332466866174
  0.5093545671849392  0.2376548253298017  0.7438911811502387
  0.0013939290345193  0.4996790513128552  0.5057167143321912
  0.4921514019298589  0.7608492169475625  0.7582428472762386
  0.9861314658476180  0.2361432984702505  0.2679130115474388
  0.7645426284034765  0.7416401341356477 -0.0017538142868007
  0.0040365244696229  0.2494477094292460  0.7329375082338229
  0.7606233541950146  0.2487171049940945  0.4857519646066958
  0.0019614720074265  0.7395460497713799  0.7591712742329672
  0.2451908057162644  0.4834251911191528  0.7533306175419032
  0.2433259272248250  0.2480053716479928  0.9916545817657572
  0.5099302655065043  0.2433813243804042  0.2475224438177088
  0.7425982061075456 -0.0010699328531853  0.2539889136813561
  0.7562530311160499  0.2550621312018923  0.0030888386900796
  0.2430062370034901  0.7502331525726148  0.9949674708233600
  0.2511536445142092  0.2468472561814081  0.5036287353832997
  0.2482980675293046  0.7540520271743492  0.5062848983687197
  0.2486863629278924  0.2476484599396999  0.2488947618421088
  0.2524391717045233  0.0037497407725215  0.9927353855360315
  0.0016546356504756  0.2545631453647350  0.0024864023294324
  0.7512670982438713  0.2468941128677817  0.2480789389437827
  0.7473927425564439  0.9986829442124475  0.0033218640798374
  0.5063759002185829 -0.0032370057764720  0.2403785560503424
  0.9960219877424711  0.4954998597810968  0.2473406084282922
  0.5002351091250222  0.7593822874365442  0.0065461993982685
  0.9857850919488161  0.0065823440176473  0.7473816073889278
  0.7601772633410165  0.2474813612688599  0.7506227709011239
  0.7434152587060507  0.0064660225532252  0.5000186882200396
  0.5031561140680304  0.2449781850981047  0.4920001109923596
  0.5079890474374436 -0.0005811442868067  0.7495606982933782
  0.9949555479917208  0.0036218313188246  0.2523835206803457
  0.5045196239896053  0.2418154589498829  0.0014859483655192
  0.2531297432359287  0.7496381202336004  0.2488859317119014
  0.2416439217210895  0.4996346719406280  0.9919124885006578
  0.9995463081787672  0.7462771686744794 -0.0029212041541438
  0.7444250629015398  0.7523493433163188  0.2461869779368697
  0.7607229597653995  0.5020757813550963  0.0009285507724971
  0.5031899859058352  0.4985542528626803  0.2538417599150019
  0.2448388019190654  0.2477553490928102  0.7485177650728175
  0.2587793385559068  0.0005621920133583  0.5103340597748308
  0.0001792179093093  0.2485355588473389  0.5017476542594029
  0.2368418753228535  0.7566421498542376  0.7525093365873831
  0.2526402552277789  0.4976508583688017  0.5052340674366795
 -0.0002190474161399  0.7543792155278849  0.5061195618838310
  0.0050127843769974  0.4966399263684021  0.7594630561216803
  0.7543500879391861  0.7556507285290153  0.7577630457663307
  0.7471649849667229  0.4962660321250933  0.4997742299085750
  0.4948295339251077  0.7547751919625519  0.4971343246021544
  0.4985514449876741  0.4988680774930281  0.7469627248954925
  0.5273934684158821  0.0138410497895331  0.9858909070316932
  0.0049402998328532  0.5134716459918608  0.9844006884931475
  0.4933033005226679  0.7596172967598948  0.2604977013722375
  0.2266405649458346  0.0172504913151822  0.7461903268830709
  0.4915547214405623  0.9804090094214840  0.4793261481527156
  0.7379632430948672  0.9773299847365605  0.7808927930807453
  0.0044296672642501  0.7590702615539023  0.2484503189901216
  0.7498649968329573  0.5019997607233553  0.2501592444216708
  0.0058260023957976  0.0041590122096767  0.5082710175353875
  0.4961089355412779  0.5064510989480202  0.5012351230889893
  0.7530427913530284  0.5050594489604444  0.7534930751451824
  0.7476083939035599  0.7580530441762405  0.4998027959925770
 
  0.00000000E+00  0.00000000E+00  0.00000000E+00
  0.00000000E+00  0.00000000E+00  0.00000000E+00
  0.00000000E+00  0.00000000E+00  0.00000000E+00
  0.00000000E+00  0.00000000E+00  0.00000000E+00
  0.00000000E+00  0.00000000E+00  0.00000000E+00
  0.00000000E+00  0.00000000E+00  0.00000000E+00
  0.00000000E+00  0.00000000E+00  0.00000000E+00
  0.00000000E+00  0.00000000E+00  0.00000000E+00
  0.00000000E+00  0.00000000E+00  0.00000000E+00
  0.00000000E+00  0.00000000E+00  0.00000000E+00
  0.00000000E+00  0.00000000E+00  0.00000000E+00
  0.00000000E+00  0.00000000E+00  0.00000000E+00
  0.00000000E+00  0.00000000E+00  0.00000000E+00
  0.00000000E+00  0.00000000E+00  0.00000000E+00
  0.00000000E+00  0.00000000E+00  0.00000000E+00
  0.00000000E+00  0.00000000E+00  0.00000000E+00
  0.00000000E+00  0.00000000E+00  0.00000000E+00
  0.00000000E+00  0.00000000E+00  0.00000000E+00
  0.00000000E+00  0.00000000E+00  0.00000000E+00
  0.00000000E+00  0.00000000E+00  0.00000000E+00
  0.00000000E+00  0.00000000E+00  0.00000000E+00
  0.00000000E+00  0.00000000E+00  0.00000000E+00
  0.00000000E+00  0.00000000E+00  0.00000000E+00
  0.00000000E+00  0.00000000E+00  0.00000000E+00
  0.00000000E+00  0.00000000E+00  0.00000000E+00
  0.00000000E+00  0.00000000E+00  0.00000000E+00
  0.00000000E+00  0.00000000E+00  0.00000000E+00
  0.00000000E+00  0.00000000E+00  0.00000000E+00
  0.00000000E+00  0.00000000E+00  0.00000000E+00
  0.00000000E+00  0.00000000E+00  0.00000000E+00
  0.00000000E+00  0.00000000E+00  0.00000000E+00
  0.00000000E+00  0.00000000E+00  0.00000000E+00
  0.00000000E+00  0.00000000E+00  0.00000000E+00
  0.00000000E+00  0.00000000E+00  0.00000000E+00
  0.00000000E+00  0.00000000E+00  0.00000000E+00
  0.00000000E+00  0.00000000E+00  0.00000000E+00
  0.00000000E+00  0.00000000E+00  0.00000000E+00
  0.00000000E+00  0.00000000E+00  0.00000000E+00
  0.00000000E+00  0.00000000E+00  0.00000000E+00
  0.00000000E+00  0.00000000E+00  0.00000000E+00
  0.00000000E+00  0.00000000E+00  0.00000000E+00
  0.00000000E+00  0.00000000E+00  0.00000000E+00
  0.00000000E+00  0.00000000E+00  0.00000000E+00
  0.00000000E+00  0.00000000E+00  0.00000000E+00
  0.00000000E+00  0.00000000E+00  0.00000000E+00
  0.00000000E+00  0.00000000E+00  0.00000000E+00
  0.00000000E+00  0.00000000E+00  0.00000000E+00
  0.00000000E+00  0.00000000E+00  0.00000000E+00
  0.00000000E+00  0.00000000E+00  0.00000000E+00
  0.00000000E+00  0.00000000E+00  0.00000000E+00
  0.00000000E+00  0.00000000E+00  0.00000000E+00
  0.00000000E+00  0.00000000E+00  0.00000000E+00
  0.00000000E+00  0.00000000E+00  0.00000000E+00
  0.00000000E+00  0.00000000E+00  0.00000000E+00
  0.00000000E+00  0.00000000E+00  0.00000000E+00
  0.00000000E+00  0.00000000E+00  0.00000000E+00
  0.00000000E+00  0.00000000E+00  0.00000000E+00
  0.00000000E+00  0.00000000E+00  0.00000000E+00
  0.00000000E+00  0.00000000E+00  0.00000000E+00
  0.00000000E+00  0.00000000E+00  0.00000000E+00
  0.00000000E+00  0.00000000E+00  0.00000000E+00
  0.00000000E+00  0.00000000E+00  0.00000000E+00
  0.00000000E+00  0.00000000E+00  0.00000000E+00
  0.00000000E+00  0.00000000E+00  0.00000000E+00
