76-TiNbTaCrW                            
   1.00000000000000     
     8.7117466044079812    0.0108205797707391   -0.0059222415446142
     0.0167677083671816    8.7330515580766459    0.0118364487277089
     0.0253327718272817   -0.0034340287240366    8.7335886959876206
  Nb              Ta              Ti              N               C               Cr              W             
     7     6     7    13    19     6     6
Direct
  0.0098237241267594  0.9919285294262197  0.9953334571658471
  0.2554798535361191  0.9941516316854269  0.2503172812482818
  0.2543807930177772  0.5050371244342214  0.2479243227828936
  0.5011016824125710  0.4902999459958109  0.9997989715136864
  0.4977942825581594  0.2416506406654533  0.7535119119114243
  0.0015538791016425  0.4978256759815526  0.5096663579967254
  0.5016301159704584  0.7588759430145287  0.7374743516029478
  0.0001276369852333  0.2405514252149688  0.2489211911539583
  0.7484623446831320  0.7511322268187933  0.0018340812931440
  0.0070675073411461  0.2435675520493128  0.7514709056990072
  0.7499354684467842  0.2480616559358620  0.5051712527231993
  0.0038544443692073  0.7552805673134699  0.7501009074744894
  0.2525007780528025  0.5013882924123495  0.7510331464656309
  0.2543328056680222  0.2472006210287840  0.9972978956868980
  0.5000342591217494  0.2439991718859539  0.2484213174399741
  0.7347721236521952  0.9906510987038243  0.2582033138566645
  0.7457407217778506  0.2441649023315088  0.9952896620900082
  0.2573298759560790  0.7514581429885371  0.0006752298071687
  0.2528446371570416  0.2486378850806245  0.5036171985356870
  0.2517371885894758  0.7516043110211289  0.4974516191982882
  0.2516774370277549  0.2502964390311139  0.2499584929877875
  0.2669684949057322  0.0002914526877436  0.9956243724963402
  0.0009835131816039  0.2523444243624040  0.0022618768379285
  0.7475092626233409  0.2448094004866244  0.2503747317826222
  0.7473413775436984  0.0000733210430737  0.0039387542383177
  0.5049883280311757  0.0058286051731447  0.2455896826058763
  0.9933411264145922  0.4948875401165084  0.2489328941190775
  0.5018339079206073  0.7558846340787799  0.9988436748538577
  0.9878250701049126  0.0012096344173005  0.7411015796916197
  0.7545869241634314  0.2393305001115818  0.7517143564173728
  0.7531093134248735  0.0033534752549942  0.4946624196415736
  0.5009963332898972  0.2484313520630112  0.4937313096048622
  0.4987325830955420  0.9993534324806603  0.7468034748231378
  0.9932323044354540  0.0000296243585375  0.2478423697921756
  0.5011197571598929  0.2452039808076039  0.0041998754917339
  0.2601809323222807  0.7504283221530608  0.2491203040178576
  0.2427477946991780  0.5000634585047591  0.9986977335524636
  0.0060985468399482  0.7434088037357849  0.0038282403881780
  0.7460038276338133  0.7502237827338919  0.2492003259130728
  0.7623934339579580  0.4949716772157165  0.0044824310239936
  0.4979169385398791  0.4975685951134309  0.2491997303666957
  0.2508871759335160  0.2431089564330551  0.7518604852594780
  0.2548815865909289  0.0001920467803084  0.5141059292964668
  0.0039257895479075  0.2482163634489303  0.4997448920774875
  0.2503291241085203  0.7582803848661109  0.7507385754891847
  0.2537009052829872  0.4998358583754584  0.5007704116604965
  0.0012568627076336  0.7545965387462681  0.4977730259491074
  0.9987684109874611  0.5004830669096283  0.7553742913508046
  0.7526182752729064  0.7611497000517452  0.7447742902740258
  0.7474920644469522  0.4954578685406986  0.5019650244106392
  0.4991567336126025  0.7660118592328901  0.4867477459244449
  0.5030300551325220  0.4992471775540004  0.7439595851173015
  0.5137654705936120  0.0213840744988260  0.9836281516722513
  0.0000171719298634  0.5213966890166634  0.9742698809253130
  0.5002809562270348  0.7283092009414767  0.2698019013350147
  0.2229278662032585  0.0004383596917825  0.7710048020141836
  0.4714027936436406  0.9971208922513297  0.5005323386103901
  0.7208534866613127  0.9860453411693552  0.7820673249662593
  0.0054349147638211  0.7664432431525873  0.2514560548220177
  0.7343818545296735  0.5094468336286133  0.2456797643688953
  0.0201704452890552  0.0046624395352134  0.4919592889487217
  0.4980821955138886  0.5135809533589460  0.4916950940888737
  0.7471160846684033  0.5120242805707759  0.7607907258552299
  0.7494288225127081  0.7371078223272836  0.4956775452909609
 
  0.00000000E+00  0.00000000E+00  0.00000000E+00
  0.00000000E+00  0.00000000E+00  0.00000000E+00
  0.00000000E+00  0.00000000E+00  0.00000000E+00
  0.00000000E+00  0.00000000E+00  0.00000000E+00
  0.00000000E+00  0.00000000E+00  0.00000000E+00
  0.00000000E+00  0.00000000E+00  0.00000000E+00
  0.00000000E+00  0.00000000E+00  0.00000000E+00
  0.00000000E+00  0.00000000E+00  0.00000000E+00
  0.00000000E+00  0.00000000E+00  0.00000000E+00
  0.00000000E+00  0.00000000E+00  0.00000000E+00
  0.00000000E+00  0.00000000E+00  0.00000000E+00
  0.00000000E+00  0.00000000E+00  0.00000000E+00
  0.00000000E+00  0.00000000E+00  0.00000000E+00
  0.00000000E+00  0.00000000E+00  0.00000000E+00
  0.00000000E+00  0.00000000E+00  0.00000000E+00
  0.00000000E+00  0.00000000E+00  0.00000000E+00
  0.00000000E+00  0.00000000E+00  0.00000000E+00
  0.00000000E+00  0.00000000E+00  0.00000000E+00
  0.00000000E+00  0.00000000E+00  0.00000000E+00
  0.00000000E+00  0.00000000E+00  0.00000000E+00
  0.00000000E+00  0.00000000E+00  0.00000000E+00
  0.00000000E+00  0.00000000E+00  0.00000000E+00
  0.00000000E+00  0.00000000E+00  0.00000000E+00
  0.00000000E+00  0.00000000E+00  0.00000000E+00
  0.00000000E+00  0.00000000E+00  0.00000000E+00
  0.00000000E+00  0.00000000E+00  0.00000000E+00
  0.00000000E+00  0.00000000E+00  0.00000000E+00
  0.00000000E+00  0.00000000E+00  0.00000000E+00
  0.00000000E+00  0.00000000E+00  0.00000000E+00
  0.00000000E+00  0.00000000E+00  0.00000000E+00
  0.00000000E+00  0.00000000E+00  0.00000000E+00
  0.00000000E+00  0.00000000E+00  0.00000000E+00
  0.00000000E+00  0.00000000E+00  0.00000000E+00
  0.00000000E+00  0.00000000E+00  0.00000000E+00
  0.00000000E+00  0.00000000E+00  0.00000000E+00
  0.00000000E+00  0.00000000E+00  0.00000000E+00
  0.00000000E+00  0.00000000E+00  0.00000000E+00
  0.00000000E+00  0.00000000E+00  0.00000000E+00
  0.00000000E+00  0.00000000E+00  0.00000000E+00
  0.00000000E+00  0.00000000E+00  0.00000000E+00
  0.00000000E+00  0.00000000E+00  0.00000000E+00
  0.00000000E+00  0.00000000E+00  0.00000000E+00
  0.00000000E+00  0.00000000E+00  0.00000000E+00
  0.00000000E+00  0.00000000E+00  0.00000000E+00
  0.00000000E+00  0.00000000E+00  0.00000000E+00
  0.00000000E+00  0.00000000E+00  0.00000000E+00
  0.00000000E+00  0.00000000E+00  0.00000000E+00
  0.00000000E+00  0.00000000E+00  0.00000000E+00
  0.00000000E+00  0.00000000E+00  0.00000000E+00
  0.00000000E+00  0.00000000E+00  0.00000000E+00
  0.00000000E+00  0.00000000E+00  0.00000000E+00
  0.00000000E+00  0.00000000E+00  0.00000000E+00
  0.00000000E+00  0.00000000E+00  0.00000000E+00
  0.00000000E+00  0.00000000E+00  0.00000000E+00
  0.00000000E+00  0.00000000E+00  0.00000000E+00
  0.00000000E+00  0.00000000E+00  0.00000000E+00
  0.00000000E+00  0.00000000E+00  0.00000000E+00
  0.00000000E+00  0.00000000E+00  0.00000000E+00
  0.00000000E+00  0.00000000E+00  0.00000000E+00
  0.00000000E+00  0.00000000E+00  0.00000000E+00
  0.00000000E+00  0.00000000E+00  0.00000000E+00
  0.00000000E+00  0.00000000E+00  0.00000000E+00
  0.00000000E+00  0.00000000E+00  0.00000000E+00
  0.00000000E+00  0.00000000E+00  0.00000000E+00
