Zr                                      
   1.00000000000000     
     3.1790588964957043    0.0000000000000000    0.0000000000000000
    -1.5895294482478521    2.7531457644783401   -0.0000000000000000
     0.0000000000000000    0.0000000000000000    5.2714183094086060
  Zr            
     2
Direct
  0.3333333429999996  0.6666666870000029  0.2500000000000000
  0.6666666570000004  0.3333333129999971  0.7500000000000000
 
  0.00000000E+00  0.00000000E+00  0.00000000E+00
  0.00000000E+00  0.00000000E+00  0.00000000E+00
