Zr
1.0
        3.2311999798         0.0000000000         0.0000000000
       -1.6155999899         2.7983012672         0.0000000000
        0.0000000000         0.0000000000         5.1476998329
   Zr
    2
Direct
     0.333333343         0.666666687         0.250000000
     0.666666657         0.333333313         0.750000000
