54-HfVTaMoW                             
   1.00000000000000     
     8.8027978433427929    0.0101655953846079    0.0088934376796764
     0.0160775120771062    8.8290292479514623   -0.0027635300088771
     0.0404937001260780   -0.0179343692939463    8.8249326706208464
  Hf              Ta              V               N               C               W               Mo            
     7     6     7    13    19     6     6
Direct
  0.0031731727499681  0.0032155847691683  0.0001914569650061
  0.2620769640541287  0.0057188206601292  0.2421517677859417
  0.2488602545014579  0.4943282077875948  0.2534634655384083
  0.5006534400770452  0.4970552527052663  0.9992912044321649
  0.5025091285287996  0.2462316373659243  0.7460528182206849
  0.9984231095098449  0.5052419935208962  0.4990404782047640
  0.4926029658448070  0.7580139447987775  0.7565287277494502
  0.9978028808676316  0.2391427882455297  0.2548332266976318
  0.7598876817906524  0.7457748354455017  0.0113021981228488
  0.9979608120353931  0.2617211182998587  0.7508027219667488
  0.7510917950192961  0.2534669357035703  0.4911409914911652
  0.0007250519458622  0.7463340205752618  0.7499873847768739
  0.2541193220134134  0.5015352596121582  0.7432621276412669
  0.2476836729311879  0.2730481120401830  0.9820342136262205
  0.5213539314364137  0.2626157171261740  0.2384129582770518
  0.7455556305383558  0.9767864359209961  0.2783238287806210
  0.7304574782444233  0.2490494875004975  0.0303608580543067
  0.2289531774710203  0.7280770199861002  0.9980649467185931
  0.2338451263157446  0.2407212749483627  0.5162668166144744
  0.2424905929228935  0.7645827396647180  0.5053717571513430
  0.2465252320117075  0.2498532627724308  0.2476687791987243
  0.2565927249340899  0.0010086408545612  0.9917301421959797
  0.9931013148039340  0.2509861480936287  0.0030595067065075
  0.7476791107230255  0.2275478561840048  0.2513937194778960
  0.7567232596814600  0.0035418261125697  0.0174403764508796
  0.5145467920751631  0.9974712801261501  0.2364878624313566
  0.9990051192778759  0.4916335063648956  0.2457953664700147
  0.4999165556420406  0.7573945209599630  0.0054918163073588
  0.9878062157097756  0.0041103597318336  0.7482389956383502
  0.7521404706331303  0.2407662009119860  0.7439596484316968
  0.7568426152951008  0.0053035013408087  0.5177149086068448
  0.5057654503119959  0.2346972757138194  0.4914498446060244
  0.4911568632512534  0.0020188592552154  0.7391486363372317
  0.9983933891893063  0.0032613569739878  0.2538180634217449
  0.4902863148981727  0.2489331711888389  0.0035100645251436
  0.2558156689354154  0.7508138269758324  0.2463058621588781
  0.2441564277529652  0.4992498519696186  0.9968021689754060
  0.0023754668284759  0.7450594580193042  0.0047612374868678
  0.7540350785430990  0.7347919535890316  0.2509052395891662
  0.7537686860575463  0.4882679946704623  0.0024911934506520
  0.4980890418837135  0.4966738596605801  0.2514950688322559
  0.2465687490828823  0.2496705568599238  0.7507867406766632
  0.2720162524100803  0.0047369469905057  0.4975263116078233
  0.0000220483020590  0.2503416616671243  0.5015746098418004
  0.2435914448788553  0.7557663274777463  0.7532542365836471
  0.2548948789485517  0.4969987496739826  0.5015107969850688
  0.0017101172507743  0.7595688473954625  0.5031365603732350
  0.0012726140622560  0.5035246453457746  0.7466452907494880
  0.7479428688518099  0.7544992239177895  0.7529244833595506
  0.7451543116698701  0.4996756782975231  0.5018955769507717
  0.4916659407798569  0.7525930186857964  0.4998100932964638
  0.5018069131017810  0.5033650804745230  0.7437290688000695
  0.5232379679479068  0.0148902355387756  0.9876047167185886
  0.9968249326150013  0.4993608078287232  0.9849725408667122
  0.4909509008830680  0.7429984677831891  0.2557831595488850
  0.2364921307505179  0.0028094968251985  0.7331639566325384
  0.5165323404986319  0.9832047687332836  0.4738725754693094
  0.7362737810057518  0.9836940128715246  0.7732945878317193
  0.0079521395876214  0.7717578752020581  0.2587336613501608
  0.7336734390497445  0.4814087198537484  0.2510523004819692
  0.0242951849423396  0.0022854339093607  0.4980075863708335
  0.5036007775693814  0.5245889966847468  0.4922240200895344
  0.7508863724200534  0.5229865527983389  0.7592085518516525
  0.7476862821535898  0.7532277480387083  0.4827362594489966
 
  0.00000000E+00  0.00000000E+00  0.00000000E+00
  0.00000000E+00  0.00000000E+00  0.00000000E+00
  0.00000000E+00  0.00000000E+00  0.00000000E+00
  0.00000000E+00  0.00000000E+00  0.00000000E+00
  0.00000000E+00  0.00000000E+00  0.00000000E+00
  0.00000000E+00  0.00000000E+00  0.00000000E+00
  0.00000000E+00  0.00000000E+00  0.00000000E+00
  0.00000000E+00  0.00000000E+00  0.00000000E+00
  0.00000000E+00  0.00000000E+00  0.00000000E+00
  0.00000000E+00  0.00000000E+00  0.00000000E+00
  0.00000000E+00  0.00000000E+00  0.00000000E+00
  0.00000000E+00  0.00000000E+00  0.00000000E+00
  0.00000000E+00  0.00000000E+00  0.00000000E+00
  0.00000000E+00  0.00000000E+00  0.00000000E+00
  0.00000000E+00  0.00000000E+00  0.00000000E+00
  0.00000000E+00  0.00000000E+00  0.00000000E+00
  0.00000000E+00  0.00000000E+00  0.00000000E+00
  0.00000000E+00  0.00000000E+00  0.00000000E+00
  0.00000000E+00  0.00000000E+00  0.00000000E+00
  0.00000000E+00  0.00000000E+00  0.00000000E+00
  0.00000000E+00  0.00000000E+00  0.00000000E+00
  0.00000000E+00  0.00000000E+00  0.00000000E+00
  0.00000000E+00  0.00000000E+00  0.00000000E+00
  0.00000000E+00  0.00000000E+00  0.00000000E+00
  0.00000000E+00  0.00000000E+00  0.00000000E+00
  0.00000000E+00  0.00000000E+00  0.00000000E+00
  0.00000000E+00  0.00000000E+00  0.00000000E+00
  0.00000000E+00  0.00000000E+00  0.00000000E+00
  0.00000000E+00  0.00000000E+00  0.00000000E+00
  0.00000000E+00  0.00000000E+00  0.00000000E+00
  0.00000000E+00  0.00000000E+00  0.00000000E+00
  0.00000000E+00  0.00000000E+00  0.00000000E+00
  0.00000000E+00  0.00000000E+00  0.00000000E+00
  0.00000000E+00  0.00000000E+00  0.00000000E+00
  0.00000000E+00  0.00000000E+00  0.00000000E+00
  0.00000000E+00  0.00000000E+00  0.00000000E+00
  0.00000000E+00  0.00000000E+00  0.00000000E+00
  0.00000000E+00  0.00000000E+00  0.00000000E+00
  0.00000000E+00  0.00000000E+00  0.00000000E+00
  0.00000000E+00  0.00000000E+00  0.00000000E+00
  0.00000000E+00  0.00000000E+00  0.00000000E+00
  0.00000000E+00  0.00000000E+00  0.00000000E+00
  0.00000000E+00  0.00000000E+00  0.00000000E+00
  0.00000000E+00  0.00000000E+00  0.00000000E+00
  0.00000000E+00  0.00000000E+00  0.00000000E+00
  0.00000000E+00  0.00000000E+00  0.00000000E+00
  0.00000000E+00  0.00000000E+00  0.00000000E+00
  0.00000000E+00  0.00000000E+00  0.00000000E+00
  0.00000000E+00  0.00000000E+00  0.00000000E+00
  0.00000000E+00  0.00000000E+00  0.00000000E+00
  0.00000000E+00  0.00000000E+00  0.00000000E+00
  0.00000000E+00  0.00000000E+00  0.00000000E+00
  0.00000000E+00  0.00000000E+00  0.00000000E+00
  0.00000000E+00  0.00000000E+00  0.00000000E+00
  0.00000000E+00  0.00000000E+00  0.00000000E+00
  0.00000000E+00  0.00000000E+00  0.00000000E+00
  0.00000000E+00  0.00000000E+00  0.00000000E+00
  0.00000000E+00  0.00000000E+00  0.00000000E+00
  0.00000000E+00  0.00000000E+00  0.00000000E+00
  0.00000000E+00  0.00000000E+00  0.00000000E+00
  0.00000000E+00  0.00000000E+00  0.00000000E+00
  0.00000000E+00  0.00000000E+00  0.00000000E+00
  0.00000000E+00  0.00000000E+00  0.00000000E+00
  0.00000000E+00  0.00000000E+00  0.00000000E+00
