54-HfVTaMoW                             
   1.00000000000000     
     8.8413667901814161    0.0175159300294870    0.0172866288996870
     0.0235184410483550    8.8513972441728050   -0.0056743366424938
     0.0490663919299776   -0.0208056687447754    8.8601749190342378
   Hf   Ta   V    N    C    W    Mo
     7     6     7    13    19     6     6
Direct
  0.0000945273622623  0.0000984598800959  0.0050973283082014
  0.2576099062874942  0.0065789391635556  0.2397159414064860
  0.2503745366885208  0.4901420674752419  0.2526606904669432
  0.5020824382779572  0.4982208649741318 -0.0008852845557006
  0.5024435876229613  0.2489858220387922  0.7492085419982304
 -0.0011937566804802  0.5003845908857877  0.5019679113589491
  0.4955166749087729  0.7575515525986418  0.7543736139398043
  0.9937546642670215  0.2496922271381483  0.2449150915281483
  0.7539257242633378  0.7463560582878240  0.0093446636655437
 -0.0046722561544598  0.2477206695724780  0.7534400331431919
  0.7460049325013638  0.2471068437158388  0.4970455540527143
 -0.0002816677592543  0.7576822443834801  0.7453314394492613
  0.2528599885213174  0.5035983764859666  0.7453773085136196
  0.2581304443352013  0.2645007974786642  0.9778817849419116
  0.5188148162404980  0.2634892598091411  0.2385562875565055
  0.7578254666516624  0.9778992216625967  0.2724003654781191
  0.7324686713385813  0.2485304584152714  0.0115020366381851
  0.2333101372237974  0.7256019483987236  0.0070174852965740
  0.2446759685294935  0.2416744271650764  0.5193201692326507
  0.2482914485432157  0.7481936633729372  0.4933700643290200
  0.2534020508836228  0.2484761311106013  0.2464901510050446
  0.2579120150169313  0.0027871179438208  0.9915350887040814
 -0.0032088023038747  0.2510777728986412 -0.0012000468057109
  0.7444091615255838  0.2420229819571794  0.2456167532531644
  0.7536214300472767  0.0066377963772180  0.0167599456054879
  0.5136458092391083  0.9963094028743313  0.2411208351330038
  0.0007197717388868  0.4992049329137574  0.2475854290959459
  0.4953038514566949  0.7561756367866876  0.0065230747837246
  0.9928661655772756  0.0035608877976042  0.7507709030071518
  0.7486972636563706  0.2429079976303112  0.7509253122409499
  0.7417023727550061 -0.0003959136719629  0.5066412175934092
  0.4970306469936237  0.2407578999694390  0.4947163790030134
  0.4948431010568804  0.0032157242310578  0.7386841984486351
  0.9994050419597589  0.0032602989257286  0.2527637854006765
  0.4953046700726894  0.2493315523521005  0.0062464709062611
  0.2547834582841930  0.7482561150453469  0.2457104184191223
  0.2463776126135940  0.4956917801131646 -0.0009340744149098
  0.0039956397677976  0.7441296788198668  0.0037970746248444
  0.7494932197296227  0.7471770263816605  0.2549795415001416
  0.7564706652258018  0.4905910141481732  0.0053736589404989
  0.4970327786646833  0.4941748376078518  0.2527008650833986
  0.2490699769729355  0.2487089477098224  0.7479472986449409
  0.2551391496635196  0.9987974793495416  0.4971338696893162
  0.0033640437772397  0.2476318995768131  0.4989959213205162
  0.2472440091922469  0.7578993235519145  0.7535944362425695
  0.2566187591667086  0.4995159273524793  0.4986465323568305
  0.0028238273393025  0.7561315642297639  0.4966300781857443
  0.9988538939953452  0.5012665059278558  0.7530560982101296
  0.7474613516994798  0.7547082054880263  0.7485513852303860
  0.7490059460509848  0.4994902672619176  0.5024840390731016
  0.4936522131811582  0.7567634481773120  0.5004048228251015
  0.5060831691969371  0.5034952581870245  0.7439955919006573
  0.5209370319887885  0.0139762721272286  0.9889628848373686
 -0.0000347472166016  0.5035680170951498  0.9875467329391034
  0.4926211231548843  0.7362610497383085  0.2604450273624452
  0.2486124308009353  0.0013361152930090  0.7470878148066237
  0.4852409951170878  0.9923323449091407  0.4797525516143581
  0.7352311795442047  0.9848348127610486  0.7714415303136377
  0.0080010380844992  0.7664598273934320  0.2591056413475191
  0.7331501671338879  0.5043489345216448  0.2561731333552232
  0.0232379558368566  0.0020199765188042  0.4901141056465005
  0.5080777597056526  0.5219618087558171  0.4935708975697557
  0.7526870923017455  0.5203191263815775  0.7589173324853645
  0.7470778323813915  0.7388134735774006  0.4909944017665314
 
  0.00000000E+00  0.00000000E+00  0.00000000E+00
  0.00000000E+00  0.00000000E+00  0.00000000E+00
  0.00000000E+00  0.00000000E+00  0.00000000E+00
  0.00000000E+00  0.00000000E+00  0.00000000E+00
  0.00000000E+00  0.00000000E+00  0.00000000E+00
  0.00000000E+00  0.00000000E+00  0.00000000E+00
  0.00000000E+00  0.00000000E+00  0.00000000E+00
  0.00000000E+00  0.00000000E+00  0.00000000E+00
  0.00000000E+00  0.00000000E+00  0.00000000E+00
  0.00000000E+00  0.00000000E+00  0.00000000E+00
  0.00000000E+00  0.00000000E+00  0.00000000E+00
  0.00000000E+00  0.00000000E+00  0.00000000E+00
  0.00000000E+00  0.00000000E+00  0.00000000E+00
  0.00000000E+00  0.00000000E+00  0.00000000E+00
  0.00000000E+00  0.00000000E+00  0.00000000E+00
  0.00000000E+00  0.00000000E+00  0.00000000E+00
  0.00000000E+00  0.00000000E+00  0.00000000E+00
  0.00000000E+00  0.00000000E+00  0.00000000E+00
  0.00000000E+00  0.00000000E+00  0.00000000E+00
  0.00000000E+00  0.00000000E+00  0.00000000E+00
  0.00000000E+00  0.00000000E+00  0.00000000E+00
  0.00000000E+00  0.00000000E+00  0.00000000E+00
  0.00000000E+00  0.00000000E+00  0.00000000E+00
  0.00000000E+00  0.00000000E+00  0.00000000E+00
  0.00000000E+00  0.00000000E+00  0.00000000E+00
  0.00000000E+00  0.00000000E+00  0.00000000E+00
  0.00000000E+00  0.00000000E+00  0.00000000E+00
  0.00000000E+00  0.00000000E+00  0.00000000E+00
  0.00000000E+00  0.00000000E+00  0.00000000E+00
  0.00000000E+00  0.00000000E+00  0.00000000E+00
  0.00000000E+00  0.00000000E+00  0.00000000E+00
  0.00000000E+00  0.00000000E+00  0.00000000E+00
  0.00000000E+00  0.00000000E+00  0.00000000E+00
  0.00000000E+00  0.00000000E+00  0.00000000E+00
  0.00000000E+00  0.00000000E+00  0.00000000E+00
  0.00000000E+00  0.00000000E+00  0.00000000E+00
  0.00000000E+00  0.00000000E+00  0.00000000E+00
  0.00000000E+00  0.00000000E+00  0.00000000E+00
  0.00000000E+00  0.00000000E+00  0.00000000E+00
  0.00000000E+00  0.00000000E+00  0.00000000E+00
  0.00000000E+00  0.00000000E+00  0.00000000E+00
  0.00000000E+00  0.00000000E+00  0.00000000E+00
  0.00000000E+00  0.00000000E+00  0.00000000E+00
  0.00000000E+00  0.00000000E+00  0.00000000E+00
  0.00000000E+00  0.00000000E+00  0.00000000E+00
  0.00000000E+00  0.00000000E+00  0.00000000E+00
  0.00000000E+00  0.00000000E+00  0.00000000E+00
  0.00000000E+00  0.00000000E+00  0.00000000E+00
  0.00000000E+00  0.00000000E+00  0.00000000E+00
  0.00000000E+00  0.00000000E+00  0.00000000E+00
  0.00000000E+00  0.00000000E+00  0.00000000E+00
  0.00000000E+00  0.00000000E+00  0.00000000E+00
  0.00000000E+00  0.00000000E+00  0.00000000E+00
  0.00000000E+00  0.00000000E+00  0.00000000E+00
  0.00000000E+00  0.00000000E+00  0.00000000E+00
  0.00000000E+00  0.00000000E+00  0.00000000E+00
  0.00000000E+00  0.00000000E+00  0.00000000E+00
  0.00000000E+00  0.00000000E+00  0.00000000E+00
  0.00000000E+00  0.00000000E+00  0.00000000E+00
  0.00000000E+00  0.00000000E+00  0.00000000E+00
  0.00000000E+00  0.00000000E+00  0.00000000E+00
  0.00000000E+00  0.00000000E+00  0.00000000E+00
  0.00000000E+00  0.00000000E+00  0.00000000E+00
  0.00000000E+00  0.00000000E+00  0.00000000E+00
