28-TiHfNbTaW                            
   1.00000000000000     
     8.8758977467787599    0.0058627883819852    0.0195709472667449
     0.0059297974567773    8.9404126654767921   -0.0139141405165935
     0.0195856623517544   -0.0138102965086029    8.9032667967771886
   Ti   Ta   Hf   N    C    W    Nb
     7     6     7    13    19     6     6
Direct
  0.0038053302989027  0.9841208341117706  0.0051234488512435
  0.2476312603018087  0.9925594125342698  0.2550702414530193
  0.2555188383256777  0.5079685801301679  0.2475351410943745
  0.4985869797710052  0.4863773492482082  0.9957799622883527
  0.4914696328815182  0.2455717060373033  0.7555762025782258
  0.0002544421033761  0.4990722170465460  0.5094510696537711
  0.5018311498365975  0.7503382259021478  0.7424464124106152
  0.0001819119700812  0.2443035002942011  0.2605827589398473
  0.7495150536868920  0.7483005980390161  0.0029131510577471
  0.0067039348012941  0.2493448208099380  0.7400297886771057
  0.7550848644157568  0.2616337121772006  0.5051958153318949
  0.9984828822413476  0.7480021589052299  0.7521173398655918
  0.2536700872495032  0.4971363186719984  0.7525718678232423
  0.2451775425280402  0.2465874390922309  0.0002891481085072
  0.4985769134715312  0.2531835827396591  0.2472239605838524
  0.7500292803466522  0.9945811078391174  0.2534582763126636
  0.7542405269511718  0.2517953957359964  0.9933266114044841
  0.2597505600229297  0.7545672152286258  0.9993564432977138
  0.2511622591323501  0.2505383967529440  0.4987946744931619
  0.2460597131149385  0.7479145887188494  0.5015887695991239
  0.2487831261880658  0.2493078468663867  0.2486220108529480
  0.2562035102417397  0.0012186310157105  0.9997626528183261
  0.0004990117143393  0.2493257092175583  0.0000451799127177
  0.7493693096631175  0.2472532412040244  0.2512885669102463
  0.7571326097881510  0.9998619712511214  0.0061112369236582
  0.4972914782449536  0.9982694789787701  0.2392973573489385
  0.0018609235009279  0.4913519573447047  0.2453704885037524
  0.5062555589684550  0.7581326510242477  0.0007974962001711
  0.9921419037383572  0.0025567083686795  0.7552505552212239
  0.7500743783506252  0.2444312383585441  0.7467591127771769
  0.7402241535146956  0.0054481279385428  0.5062001981929853
  0.5055221557802412  0.2426517556757375  0.5010838113079501
  0.4989919557993900  0.0023554890566260  0.7333908099286575
  0.0031823704760683  0.0009940306384451  0.2468863821549121
  0.5006835447219444  0.2546204509694689  0.9956909454221261
  0.2540710567592015  0.7491932940056003  0.2497702062170646
  0.2489464643359298  0.5019883673140626  0.0038132463718199
  0.0022123143674193  0.7537008694489700  0.9987862063529889
  0.7480142055311774  0.7481755786077358  0.2493761146091842
  0.7505834524050385  0.5033016969373492  0.0017185930739672
  0.4961297246024401  0.5037599601575948  0.2472671696989650
  0.2541371531701202  0.2513936570602766  0.7501093516353805
  0.2480046375624596  0.9984363988706306  0.4958176019216793
  0.9995907104855206  0.2540833509681946  0.5005461880383422
  0.2516108405209465  0.7531680090245771  0.7509392195728140
  0.2481461998067616  0.4991807554769920  0.4966301263211221
  0.9963971803046476  0.7474276198345535  0.5032398119948240
  0.0004945300572246  0.4993907140120157  0.7507484769604602
  0.7457988658325476  0.7531307084544991  0.7524468198079504
  0.7548733927877151  0.4986595240276870  0.4998992469920438
  0.4995693976657236  0.7495889073766904  0.5062843931185554
  0.4993862620115976  0.5005339542442329  0.7515260711015372
  0.5101970278355239  0.0168473474805921  0.9846543420925329
  0.0034861719787713  0.5185242138033530  0.9919801285498764
  0.4998534270519812  0.7431847547919759  0.2647609574115819
  0.2465638104947629  0.0057828821598420  0.7431036355968956
  0.4802414873754657  0.9840014596382218  0.4933785799846220
  0.7328660943494683  0.9837175166891754  0.7696757077522420
  0.0016772138223402  0.7537330489950804  0.2492069913328265
  0.7423068777230384  0.5062345431755872  0.2507377297585762
  0.0090548106170303  0.0018393212043364  0.4973088291540719
  0.5004564272517271  0.5086080294369211  0.5028551968267720
  0.7457320005034518  0.5130383385019286  0.7517461315411609
  0.7519598018053557  0.7377005163433878  0.4966894265216837
 
  0.00000000E+00  0.00000000E+00  0.00000000E+00
  0.00000000E+00  0.00000000E+00  0.00000000E+00
  0.00000000E+00  0.00000000E+00  0.00000000E+00
  0.00000000E+00  0.00000000E+00  0.00000000E+00
  0.00000000E+00  0.00000000E+00  0.00000000E+00
  0.00000000E+00  0.00000000E+00  0.00000000E+00
  0.00000000E+00  0.00000000E+00  0.00000000E+00
  0.00000000E+00  0.00000000E+00  0.00000000E+00
  0.00000000E+00  0.00000000E+00  0.00000000E+00
  0.00000000E+00  0.00000000E+00  0.00000000E+00
  0.00000000E+00  0.00000000E+00  0.00000000E+00
  0.00000000E+00  0.00000000E+00  0.00000000E+00
  0.00000000E+00  0.00000000E+00  0.00000000E+00
  0.00000000E+00  0.00000000E+00  0.00000000E+00
  0.00000000E+00  0.00000000E+00  0.00000000E+00
  0.00000000E+00  0.00000000E+00  0.00000000E+00
  0.00000000E+00  0.00000000E+00  0.00000000E+00
  0.00000000E+00  0.00000000E+00  0.00000000E+00
  0.00000000E+00  0.00000000E+00  0.00000000E+00
  0.00000000E+00  0.00000000E+00  0.00000000E+00
  0.00000000E+00  0.00000000E+00  0.00000000E+00
  0.00000000E+00  0.00000000E+00  0.00000000E+00
  0.00000000E+00  0.00000000E+00  0.00000000E+00
  0.00000000E+00  0.00000000E+00  0.00000000E+00
  0.00000000E+00  0.00000000E+00  0.00000000E+00
  0.00000000E+00  0.00000000E+00  0.00000000E+00
  0.00000000E+00  0.00000000E+00  0.00000000E+00
  0.00000000E+00  0.00000000E+00  0.00000000E+00
  0.00000000E+00  0.00000000E+00  0.00000000E+00
  0.00000000E+00  0.00000000E+00  0.00000000E+00
  0.00000000E+00  0.00000000E+00  0.00000000E+00
  0.00000000E+00  0.00000000E+00  0.00000000E+00
  0.00000000E+00  0.00000000E+00  0.00000000E+00
  0.00000000E+00  0.00000000E+00  0.00000000E+00
  0.00000000E+00  0.00000000E+00  0.00000000E+00
  0.00000000E+00  0.00000000E+00  0.00000000E+00
  0.00000000E+00  0.00000000E+00  0.00000000E+00
  0.00000000E+00  0.00000000E+00  0.00000000E+00
  0.00000000E+00  0.00000000E+00  0.00000000E+00
  0.00000000E+00  0.00000000E+00  0.00000000E+00
  0.00000000E+00  0.00000000E+00  0.00000000E+00
  0.00000000E+00  0.00000000E+00  0.00000000E+00
  0.00000000E+00  0.00000000E+00  0.00000000E+00
  0.00000000E+00  0.00000000E+00  0.00000000E+00
  0.00000000E+00  0.00000000E+00  0.00000000E+00
  0.00000000E+00  0.00000000E+00  0.00000000E+00
  0.00000000E+00  0.00000000E+00  0.00000000E+00
  0.00000000E+00  0.00000000E+00  0.00000000E+00
  0.00000000E+00  0.00000000E+00  0.00000000E+00
  0.00000000E+00  0.00000000E+00  0.00000000E+00
  0.00000000E+00  0.00000000E+00  0.00000000E+00
  0.00000000E+00  0.00000000E+00  0.00000000E+00
  0.00000000E+00  0.00000000E+00  0.00000000E+00
  0.00000000E+00  0.00000000E+00  0.00000000E+00
  0.00000000E+00  0.00000000E+00  0.00000000E+00
  0.00000000E+00  0.00000000E+00  0.00000000E+00
  0.00000000E+00  0.00000000E+00  0.00000000E+00
  0.00000000E+00  0.00000000E+00  0.00000000E+00
  0.00000000E+00  0.00000000E+00  0.00000000E+00
  0.00000000E+00  0.00000000E+00  0.00000000E+00
  0.00000000E+00  0.00000000E+00  0.00000000E+00
  0.00000000E+00  0.00000000E+00  0.00000000E+00
  0.00000000E+00  0.00000000E+00  0.00000000E+00
  0.00000000E+00  0.00000000E+00  0.00000000E+00
