82-ZrHfTaCrW                            
   1.00000000000000     
     8.9330398066402203    0.0200310171903003   -0.0182988077415664
     0.0261314825275613    8.9672968411436820   -0.0072958645354566
     0.0137857404527788   -0.0227363867514001    8.9485384140173494
   Hf   Ta   Zr   N    C    Cr   W 
     7     6     7    13    19     6     6
Direct
  0.9971523595900603  0.9931011354377272  0.9940420670484754
  0.2615324581304403  0.9964535074779750  0.2521100699624632
  0.2425515294246930  0.5010387239620855  0.2444710560647957
  0.5015510143486350  0.5007637217992724  0.9981754002961439
  0.5043438282630834  0.2458503778923319  0.7442710233049861
  0.9969426011985166  0.5029076845171689  0.4993373142572194
  0.5007196429578008  0.7562315926326032  0.7437236653666299
  0.9962183238871680  0.2350232778902419  0.2571041730743472
  0.7523030798571878  0.7463360296745362  0.0072360674589805
  0.0034089889408107  0.2488682288628983  0.7433726908818905
  0.7525751350688428  0.2540493390391362  0.5060479477647254
  0.9997249115524757  0.7462132467918946  0.7536251640102630
  0.2483203187848688  0.4966170638183898  0.7512623798851847
  0.2487740974357046  0.2426225046137463  0.9939826622957267
  0.5035540329587715  0.2505364822087605  0.2508197737779989
  0.7388329099811928  0.9904863511360220  0.2639344238417616
  0.7522085080510266  0.2484487415400472  0.9941050538397870
  0.2550136692359753  0.7556128823823749  0.9989516308175053
  0.2534282537984159  0.2495716579030898  0.5025976342777702
  0.2489776989446159  0.7508991408559395  0.5015818409114354
  0.2460082071292115  0.2489449295749686  0.2481401882931734
  0.2481054732867292 -0.0000446327807669  0.0035518692657394
  0.0003027423240511  0.2450458509941000 -0.0005403006453710
  0.7554731691740518  0.2509689482411229  0.2552378591058371
  0.7460274622371292  0.9923939677324084 -0.0019450555087508
  0.4978600435117866  0.9968934121849578  0.2799870653629899
  0.9927417697005734  0.4910591313629569  0.2495030594655862
  0.5096191104491317  0.7603906095443318 -0.0074947996655306
  0.9852924724102645  0.0036453294061250  0.7436924560044645
  0.7540267491635887  0.2570014341068121  0.7442285643039279
  0.7647222613442863  0.0105935296004918  0.5065160175331169
  0.5097944980620887  0.2508323897978382  0.5012651783162175
  0.5305351912019797 -0.0000199914787400  0.7372194512704483
  0.0010389006978635  0.0000151922466437  0.2509812156653613
  0.5027341336293938  0.2397833071715856 -0.0050720111392857
  0.2536111752569274  0.7490666932845101  0.2496273518324052
  0.2426953326023126  0.5015849299555623  0.9946584696799350
  0.9978736387764844  0.7436581648174539  0.0047051537147005
  0.7458594897054557  0.7406534872872371  0.2503457020353760
  0.7617777508100080  0.5031228476952068  0.0064995054652582
  0.4941631002156234  0.5047632051312079  0.2483193413610980
  0.2496459858381911  0.2476662256825828  0.7483602451217714
  0.2520430605398917  0.0000335040796894  0.5127963648608308
  0.9979896164660560  0.2494556877909495  0.5010913549450151
  0.2445487212385324  0.7556147318734543  0.7505568897800233
  0.2530698834479236  0.5012247066789601  0.4993058774635828
  0.9894792309339228  0.7574197111519835  0.5014026692960751
  0.0000330392242861  0.4996836199375995  0.7524982291125202
  0.7516578098467883  0.7526676025935258  0.7470263587253133
  0.7470218630322772  0.4966856148209127  0.5049967671601838
  0.5057396672091867  0.7639357902514461  0.4916218520145313
  0.5046075917960153  0.5017652888839522  0.7428682615294121
  0.5250939604761216  0.0076650673348337  0.9541802948548616
  0.9951036212005098  0.5208003165098400  0.9762470312161459
  0.5016083136744893  0.7304763278263852  0.2718797478284103
  0.2198495035358947  0.0109566194679928  0.7389036257011121
  0.4679927765638998  0.9920983638568839  0.5225395571423221
  0.7419292130984984  0.9649098036463594  0.7736242001987773
  0.0020376098179259  0.7722784790027412  0.2551472313081982
  0.7312907257270991  0.5081347085362335  0.2529177167495609
  0.0150581601715371  0.0034804280050522  0.4997157100957428
  0.5058032818847435  0.5140573544466709  0.4880606811269618
  0.7568041881481581  0.5176957061043446  0.7625413762816675
  0.7431965180288045  0.7293096662053595  0.4915397726322089
 
  0.00000000E+00  0.00000000E+00  0.00000000E+00
  0.00000000E+00  0.00000000E+00  0.00000000E+00
  0.00000000E+00  0.00000000E+00  0.00000000E+00
  0.00000000E+00  0.00000000E+00  0.00000000E+00
  0.00000000E+00  0.00000000E+00  0.00000000E+00
  0.00000000E+00  0.00000000E+00  0.00000000E+00
  0.00000000E+00  0.00000000E+00  0.00000000E+00
  0.00000000E+00  0.00000000E+00  0.00000000E+00
  0.00000000E+00  0.00000000E+00  0.00000000E+00
  0.00000000E+00  0.00000000E+00  0.00000000E+00
  0.00000000E+00  0.00000000E+00  0.00000000E+00
  0.00000000E+00  0.00000000E+00  0.00000000E+00
  0.00000000E+00  0.00000000E+00  0.00000000E+00
  0.00000000E+00  0.00000000E+00  0.00000000E+00
  0.00000000E+00  0.00000000E+00  0.00000000E+00
  0.00000000E+00  0.00000000E+00  0.00000000E+00
  0.00000000E+00  0.00000000E+00  0.00000000E+00
  0.00000000E+00  0.00000000E+00  0.00000000E+00
  0.00000000E+00  0.00000000E+00  0.00000000E+00
  0.00000000E+00  0.00000000E+00  0.00000000E+00
  0.00000000E+00  0.00000000E+00  0.00000000E+00
  0.00000000E+00  0.00000000E+00  0.00000000E+00
  0.00000000E+00  0.00000000E+00  0.00000000E+00
  0.00000000E+00  0.00000000E+00  0.00000000E+00
  0.00000000E+00  0.00000000E+00  0.00000000E+00
  0.00000000E+00  0.00000000E+00  0.00000000E+00
  0.00000000E+00  0.00000000E+00  0.00000000E+00
  0.00000000E+00  0.00000000E+00  0.00000000E+00
  0.00000000E+00  0.00000000E+00  0.00000000E+00
  0.00000000E+00  0.00000000E+00  0.00000000E+00
  0.00000000E+00  0.00000000E+00  0.00000000E+00
  0.00000000E+00  0.00000000E+00  0.00000000E+00
  0.00000000E+00  0.00000000E+00  0.00000000E+00
  0.00000000E+00  0.00000000E+00  0.00000000E+00
  0.00000000E+00  0.00000000E+00  0.00000000E+00
  0.00000000E+00  0.00000000E+00  0.00000000E+00
  0.00000000E+00  0.00000000E+00  0.00000000E+00
  0.00000000E+00  0.00000000E+00  0.00000000E+00
  0.00000000E+00  0.00000000E+00  0.00000000E+00
  0.00000000E+00  0.00000000E+00  0.00000000E+00
  0.00000000E+00  0.00000000E+00  0.00000000E+00
  0.00000000E+00  0.00000000E+00  0.00000000E+00
  0.00000000E+00  0.00000000E+00  0.00000000E+00
  0.00000000E+00  0.00000000E+00  0.00000000E+00
  0.00000000E+00  0.00000000E+00  0.00000000E+00
  0.00000000E+00  0.00000000E+00  0.00000000E+00
  0.00000000E+00  0.00000000E+00  0.00000000E+00
  0.00000000E+00  0.00000000E+00  0.00000000E+00
  0.00000000E+00  0.00000000E+00  0.00000000E+00
  0.00000000E+00  0.00000000E+00  0.00000000E+00
  0.00000000E+00  0.00000000E+00  0.00000000E+00
  0.00000000E+00  0.00000000E+00  0.00000000E+00
  0.00000000E+00  0.00000000E+00  0.00000000E+00
  0.00000000E+00  0.00000000E+00  0.00000000E+00
  0.00000000E+00  0.00000000E+00  0.00000000E+00
  0.00000000E+00  0.00000000E+00  0.00000000E+00
  0.00000000E+00  0.00000000E+00  0.00000000E+00
  0.00000000E+00  0.00000000E+00  0.00000000E+00
  0.00000000E+00  0.00000000E+00  0.00000000E+00
  0.00000000E+00  0.00000000E+00  0.00000000E+00
  0.00000000E+00  0.00000000E+00  0.00000000E+00
  0.00000000E+00  0.00000000E+00  0.00000000E+00
  0.00000000E+00  0.00000000E+00  0.00000000E+00
  0.00000000E+00  0.00000000E+00  0.00000000E+00
