14-TiZrVTaMo                            
   1.00000000000000     
     8.8875712911551989   -0.0140964794130584    0.0248765978213942
    -0.0141889080000059    8.8334949897604726    0.0078670294531203
     0.0248043587041842    0.0078540615093041    8.8234797598547932
  Ti              Mo              V               N               C               Zr              Ta            
     7     6     6    13    19     7     6
Direct
  0.0008829253552096  0.0139096751069901  0.0096755553383302
  0.2412504830109052  0.0177955901736595  0.2457382702526623
  0.2581530405457738  0.4860957667893134  0.2513263206125143
  0.4986105108546654  0.4994451635313371  0.0010755654394758
  0.4954767111230333  0.2541870982717702  0.7590222737065002
  0.0035330907341935  0.4966154337175628  0.4964917308678414
  0.5036117940513514  0.7452088798585226  0.7540493996639590
  0.9826744362782666  0.2356252426158812  0.2591056366411708
  0.7706123824586499  0.7427018505764335  0.9963839215650915
  0.0175849599384659  0.2699502705018091  0.7438611690551475
  0.7688120701274282  0.2628064405950534  0.4827331972390165
  0.9924982790620432  0.7266257076270141  0.7522286908824325
  0.2619762433030327  0.4946834148985180  0.7514309100448274
  0.2717419055161697  0.2635600781974454  0.9925019847007163
  0.4962385084139569  0.2576630283331637  0.2334129377200343
  0.7697739741374000  0.9975028596794907  0.2317044467924254
  0.7228323562586680  0.2576975975584905  0.0132029614881572
  0.2306939431888652  0.7253855296624923  0.9999242187947996
  0.2347677228770736  0.2531722457074815  0.5238857639537117
  0.2473588815186467  0.2505098111179485  0.2445097981655563
  0.2453351290842147  0.0135777525997889  0.0077787929752934
  0.9955573566233232  0.2404039782161369  0.0012819531107520
  0.7368434056940282  0.2381505609076596  0.2441320419321919
  0.7575683478015082  0.0073131286323678  0.0074760872671314
  0.4985164905882673  0.0101425855244177  0.2478861946506003
  0.9967180679212694  0.4966017256801645  0.2567473487874004
  0.4985977664600547  0.7459694619630920  0.9905149552178272
  0.0001194085695054  0.0068342427358080  0.7509168725511851
  0.7485484680968735  0.2543057219423468  0.7497882089328640
  0.7565139199594224  0.9996211652013850  0.4955763583255173
  0.5010229119715565  0.2564105251338723  0.5025001229385533
  0.5026063475085181  0.0030376120327932  0.7505602416938432
  0.0014638659526672  0.9979874769554731  0.2459977773934323
  0.4966936878348763  0.2586642419885120  0.9995459280921534
  0.2443586807734705  0.7479102766376932  0.2377435495857657
  0.2556868021274363  0.4978252530160304  0.0033555159093644
  0.0078080934468395  0.7519648236529678  0.9986392430705281
  0.7545906684847289  0.7511319847326295  0.2489360704456057
  0.7431091116013053  0.4940590050836127  0.0017988960252326
  0.4970358568505352  0.4916878075282328  0.2471052563136927
  0.2553453870999855  0.2516204573863247  0.7568707176572539
  0.2459219396806860  0.0125667224772428  0.4957408819490623
  0.0085591689156822  0.2551624018939149  0.5005919722363490
  0.2515948645940442  0.7426921320106966  0.7626352000688730
  0.2485817059274156  0.4881487768666903  0.4981688158845933
  0.9961460791014339  0.7500664299739281  0.4994350678870759
  0.0019399899146549  0.4989547741623855  0.7437570295372022
  0.7470888676036325  0.7478115578327620  0.7507610649623714
  0.7536766578143096  0.4998622286267801  0.4998798185668986
  0.5047195355961747  0.7470700747638568  0.5047265112437356
  0.5012163363808457  0.4988869028111978  0.7526646887767453
  0.4961887988922863  0.0026230991185686  0.0043008752169306
  0.9997409052580645  0.4885458327718019  0.0042962831410483
  0.4972031344471948  0.7483222359661101  0.2424118664420577
  0.2441239965565880  0.9979704554583935  0.7578452203732542
  0.5022201125324898  0.0120633483683268  0.4930787658932831
  0.7568731738528717  0.0061496942236246  0.7591706736589134
  0.2495460547391491  0.7479889587364231  0.5003754932704911
  0.0028896541848072  0.7570549024556615  0.2482473846592433
  0.7417357632108786  0.4957689872572810  0.2508080696885010
  0.0001853438723809  0.0066634071590867  0.4904360128275473
  0.4959531285598011  0.4915099923411975  0.4987344793164393
  0.7413418791209911  0.4965799627628618  0.7519170556831547
  0.7494295880394877  0.7411763218895789  0.5026005549157285
 
  0.00000000E+00  0.00000000E+00  0.00000000E+00
  0.00000000E+00  0.00000000E+00  0.00000000E+00
  0.00000000E+00  0.00000000E+00  0.00000000E+00
  0.00000000E+00  0.00000000E+00  0.00000000E+00
  0.00000000E+00  0.00000000E+00  0.00000000E+00
  0.00000000E+00  0.00000000E+00  0.00000000E+00
  0.00000000E+00  0.00000000E+00  0.00000000E+00
  0.00000000E+00  0.00000000E+00  0.00000000E+00
  0.00000000E+00  0.00000000E+00  0.00000000E+00
  0.00000000E+00  0.00000000E+00  0.00000000E+00
  0.00000000E+00  0.00000000E+00  0.00000000E+00
  0.00000000E+00  0.00000000E+00  0.00000000E+00
  0.00000000E+00  0.00000000E+00  0.00000000E+00
  0.00000000E+00  0.00000000E+00  0.00000000E+00
  0.00000000E+00  0.00000000E+00  0.00000000E+00
  0.00000000E+00  0.00000000E+00  0.00000000E+00
  0.00000000E+00  0.00000000E+00  0.00000000E+00
  0.00000000E+00  0.00000000E+00  0.00000000E+00
  0.00000000E+00  0.00000000E+00  0.00000000E+00
  0.00000000E+00  0.00000000E+00  0.00000000E+00
  0.00000000E+00  0.00000000E+00  0.00000000E+00
  0.00000000E+00  0.00000000E+00  0.00000000E+00
  0.00000000E+00  0.00000000E+00  0.00000000E+00
  0.00000000E+00  0.00000000E+00  0.00000000E+00
  0.00000000E+00  0.00000000E+00  0.00000000E+00
  0.00000000E+00  0.00000000E+00  0.00000000E+00
  0.00000000E+00  0.00000000E+00  0.00000000E+00
  0.00000000E+00  0.00000000E+00  0.00000000E+00
  0.00000000E+00  0.00000000E+00  0.00000000E+00
  0.00000000E+00  0.00000000E+00  0.00000000E+00
  0.00000000E+00  0.00000000E+00  0.00000000E+00
  0.00000000E+00  0.00000000E+00  0.00000000E+00
  0.00000000E+00  0.00000000E+00  0.00000000E+00
  0.00000000E+00  0.00000000E+00  0.00000000E+00
  0.00000000E+00  0.00000000E+00  0.00000000E+00
  0.00000000E+00  0.00000000E+00  0.00000000E+00
  0.00000000E+00  0.00000000E+00  0.00000000E+00
  0.00000000E+00  0.00000000E+00  0.00000000E+00
  0.00000000E+00  0.00000000E+00  0.00000000E+00
  0.00000000E+00  0.00000000E+00  0.00000000E+00
  0.00000000E+00  0.00000000E+00  0.00000000E+00
  0.00000000E+00  0.00000000E+00  0.00000000E+00
  0.00000000E+00  0.00000000E+00  0.00000000E+00
  0.00000000E+00  0.00000000E+00  0.00000000E+00
  0.00000000E+00  0.00000000E+00  0.00000000E+00
  0.00000000E+00  0.00000000E+00  0.00000000E+00
  0.00000000E+00  0.00000000E+00  0.00000000E+00
  0.00000000E+00  0.00000000E+00  0.00000000E+00
  0.00000000E+00  0.00000000E+00  0.00000000E+00
  0.00000000E+00  0.00000000E+00  0.00000000E+00
  0.00000000E+00  0.00000000E+00  0.00000000E+00
  0.00000000E+00  0.00000000E+00  0.00000000E+00
  0.00000000E+00  0.00000000E+00  0.00000000E+00
  0.00000000E+00  0.00000000E+00  0.00000000E+00
  0.00000000E+00  0.00000000E+00  0.00000000E+00
  0.00000000E+00  0.00000000E+00  0.00000000E+00
  0.00000000E+00  0.00000000E+00  0.00000000E+00
  0.00000000E+00  0.00000000E+00  0.00000000E+00
  0.00000000E+00  0.00000000E+00  0.00000000E+00
  0.00000000E+00  0.00000000E+00  0.00000000E+00
  0.00000000E+00  0.00000000E+00  0.00000000E+00
  0.00000000E+00  0.00000000E+00  0.00000000E+00
  0.00000000E+00  0.00000000E+00  0.00000000E+00
  0.00000000E+00  0.00000000E+00  0.00000000E+00
