113-TiHfCrMoW                           
   1.00000000000000     
     8.7086712306691734    0.0045802524349251    0.0026951884924568
     0.0104262309514113    8.7511870642860750    0.0028339993666195
     0.0339564769680716   -0.0123667298350512    8.7297731475648366
   Hf   W    Ti   N    C    Cr   Mo
     7     6     7    13    19     6     6
Direct
  0.0020249354297708  0.9987611289030455  0.9932184879822473
  0.2656414753444301  0.0012402456697228  0.2482070833446697
  0.2394266260120207  0.4945101679360232  0.2443378414602074
  0.5032436684208169  0.5016568737797812  0.0003675435388323
  0.5128552044690986  0.2454931465386637  0.7411124856315557
  0.9970391483338819  0.5013232463218977  0.5007441693516195
  0.4967779464888533  0.7622436225932011  0.7492601892239025
  0.9893081978170609  0.2289686868425123  0.2604929327659211
  0.7640281946658359  0.7442511813536993  0.0015078239240924
  0.0156549096105726  0.2428105585012113  0.7411047005341246
  0.7537453621909016  0.2560243672534565  0.4806613956405662
  0.9976850271869684  0.7351463203559966  0.7564933507840677
  0.2547927869931981  0.4940676511477176  0.7492119470361880
  0.2524515052730655  0.2463252430194824  0.9866542109815122
  0.5086966238427566  0.2554443288630467  0.2499005458165889
  0.7339149688477424  0.9899637611083441  0.2621599973371671
  0.7475559816425345  0.2463960799956187  0.0006042320027689
  0.2465459322541129  0.7484221334217768  0.9985255243675560
  0.2552104665617407  0.2494217774553053  0.5067668837054201
  0.2492898222784067  0.7523112917286043  0.5011061301841901
  0.2470761754213667  0.2475010793291492  0.2484161990352202
  0.2560177576073436  0.0022338560012171  0.9941841868636936
  0.0013115879742696  0.2496022382981912  0.0040578239619184
  0.7461450190975162  0.2406031272340350  0.2420714905327953
  0.7457386250908135  0.9958688964820948  0.0088016931220884
  0.5070205245044683  0.0066182574796502  0.2469927119216976
  0.9913566420573985  0.4873652031158061  0.2464968653480076
  0.5017559213310256  0.7598839304753569  0.0036474483097851
  0.9909262182844110  0.9915707833984665  0.7477021541081510
  0.7612772345106418  0.2295385085887232  0.7471824237850200
  0.7473656867752374  0.0117716185265325  0.4918956697132617
  0.5029826534198761  0.2484841344178060  0.4905952783891951
  0.5070086064343287  0.0035381632199610  0.7465422155867022
  0.9958185157144342  0.9992053980989191  0.2538663828661554
  0.5036874687494720  0.2438646123724860  0.0006700288102035
  0.2566274142832647  0.7492107721146778  0.2496833108874417
  0.2411601208632754  0.5002575502304375  0.9919722708428489
  0.0055618217578356  0.7432477367339287  0.0052712879263518
  0.7404543731193274  0.7471696510318110  0.2485610457925236
  0.7629389495698730  0.4954587762812840  0.0113450570995099
  0.4924423996361227  0.4993206736601156  0.2485836942413016
  0.2583495104237275  0.2490161916905380  0.7463837190792506
  0.2602271910057973  0.0010457733823628  0.5133085228713160
  0.0015735448783198  0.2480843630751424  0.5021177718058800
  0.2421800459363189  0.7547620636522577  0.7513945784902880
  0.2525844469952579  0.5011955319950108  0.5015282461414976
  0.0013490342939329  0.7554494568978354  0.5051872432495568
  0.0011546790415793  0.4874400008453543  0.7575885902859258
  0.7525492499999483  0.7705744812365111  0.7478052539981359
  0.7456570370585649  0.4949102473111513  0.5136214922143256
  0.4976177552966349  0.7627000476948801  0.4870010581307563
  0.5000581984359505  0.5041379611360235  0.7445297220407066
  0.5185469678068602  0.0134946380190975  0.9787303555178894
  0.9901987073887026  0.5194782180865632  0.9795723753915541
  0.4892701936425173  0.7271285593725970  0.2625149382175362
  0.2227477402448103  0.0215724902837947  0.7401044843760699
  0.4825856370163344  0.9888295672169202  0.5060886758844375
  0.7275330811450321  0.9930838509423130  0.7888792821914857
  0.0054439483854322  0.7699959664321575  0.2542598023943454
  0.7325904733929142  0.5091864594460981  0.2596216513910765
  0.0180323808963521  0.0026103571805828  0.5057084256532394
  0.5034442710677210  0.5156722068618917  0.4876068463192491
  0.7560091892542118  0.5245271395062210  0.7665824238465708
  0.7497345925270473  0.7380073988549657  0.4988879617518559
 
  0.00000000E+00  0.00000000E+00  0.00000000E+00
  0.00000000E+00  0.00000000E+00  0.00000000E+00
  0.00000000E+00  0.00000000E+00  0.00000000E+00
  0.00000000E+00  0.00000000E+00  0.00000000E+00
  0.00000000E+00  0.00000000E+00  0.00000000E+00
  0.00000000E+00  0.00000000E+00  0.00000000E+00
  0.00000000E+00  0.00000000E+00  0.00000000E+00
  0.00000000E+00  0.00000000E+00  0.00000000E+00
  0.00000000E+00  0.00000000E+00  0.00000000E+00
  0.00000000E+00  0.00000000E+00  0.00000000E+00
  0.00000000E+00  0.00000000E+00  0.00000000E+00
  0.00000000E+00  0.00000000E+00  0.00000000E+00
  0.00000000E+00  0.00000000E+00  0.00000000E+00
  0.00000000E+00  0.00000000E+00  0.00000000E+00
  0.00000000E+00  0.00000000E+00  0.00000000E+00
  0.00000000E+00  0.00000000E+00  0.00000000E+00
  0.00000000E+00  0.00000000E+00  0.00000000E+00
  0.00000000E+00  0.00000000E+00  0.00000000E+00
  0.00000000E+00  0.00000000E+00  0.00000000E+00
  0.00000000E+00  0.00000000E+00  0.00000000E+00
  0.00000000E+00  0.00000000E+00  0.00000000E+00
  0.00000000E+00  0.00000000E+00  0.00000000E+00
  0.00000000E+00  0.00000000E+00  0.00000000E+00
  0.00000000E+00  0.00000000E+00  0.00000000E+00
  0.00000000E+00  0.00000000E+00  0.00000000E+00
  0.00000000E+00  0.00000000E+00  0.00000000E+00
  0.00000000E+00  0.00000000E+00  0.00000000E+00
  0.00000000E+00  0.00000000E+00  0.00000000E+00
  0.00000000E+00  0.00000000E+00  0.00000000E+00
  0.00000000E+00  0.00000000E+00  0.00000000E+00
  0.00000000E+00  0.00000000E+00  0.00000000E+00
  0.00000000E+00  0.00000000E+00  0.00000000E+00
  0.00000000E+00  0.00000000E+00  0.00000000E+00
  0.00000000E+00  0.00000000E+00  0.00000000E+00
  0.00000000E+00  0.00000000E+00  0.00000000E+00
  0.00000000E+00  0.00000000E+00  0.00000000E+00
  0.00000000E+00  0.00000000E+00  0.00000000E+00
  0.00000000E+00  0.00000000E+00  0.00000000E+00
  0.00000000E+00  0.00000000E+00  0.00000000E+00
  0.00000000E+00  0.00000000E+00  0.00000000E+00
  0.00000000E+00  0.00000000E+00  0.00000000E+00
  0.00000000E+00  0.00000000E+00  0.00000000E+00
  0.00000000E+00  0.00000000E+00  0.00000000E+00
  0.00000000E+00  0.00000000E+00  0.00000000E+00
  0.00000000E+00  0.00000000E+00  0.00000000E+00
  0.00000000E+00  0.00000000E+00  0.00000000E+00
  0.00000000E+00  0.00000000E+00  0.00000000E+00
  0.00000000E+00  0.00000000E+00  0.00000000E+00
  0.00000000E+00  0.00000000E+00  0.00000000E+00
  0.00000000E+00  0.00000000E+00  0.00000000E+00
  0.00000000E+00  0.00000000E+00  0.00000000E+00
  0.00000000E+00  0.00000000E+00  0.00000000E+00
  0.00000000E+00  0.00000000E+00  0.00000000E+00
  0.00000000E+00  0.00000000E+00  0.00000000E+00
  0.00000000E+00  0.00000000E+00  0.00000000E+00
  0.00000000E+00  0.00000000E+00  0.00000000E+00
  0.00000000E+00  0.00000000E+00  0.00000000E+00
  0.00000000E+00  0.00000000E+00  0.00000000E+00
  0.00000000E+00  0.00000000E+00  0.00000000E+00
  0.00000000E+00  0.00000000E+00  0.00000000E+00
  0.00000000E+00  0.00000000E+00  0.00000000E+00
  0.00000000E+00  0.00000000E+00  0.00000000E+00
  0.00000000E+00  0.00000000E+00  0.00000000E+00
  0.00000000E+00  0.00000000E+00  0.00000000E+00
