TiZrHfNbTa                              
   1.00000000000000     
     8.9798011440371699    0.0030311025139362   -0.0013207754174734
     0.0030196068393309    9.0392801410630987    0.0005890445764126
    -0.0013277532949573    0.0006170344368309    8.9830483499204004
  Ti              Nb              Hf              N               C               Zr              Ta            
     7     6     6    13    19     7     6
Direct
  0.0002030872752445  0.9977635808062740  0.0119964533079150
  0.2433452364893131  0.9964594753564820  0.2512218728767921
  0.2563749405484582  0.5053739889247378  0.2486037758945421
  0.4993652558680258  0.5001511716529962  0.9993714273437863
  0.4906855666802820  0.2587946297641402  0.7544266280859234
  0.0037961639552266  0.4996187378037314  0.4976018146520990
  0.4989383880910473  0.7398377546748380  0.7497826473675804
  0.9990294659231221  0.2385802760633805  0.2599196482811179
  0.7543332713577299  0.7443331639800042  0.9969324296236357
  0.0048644714028263  0.2641328386994437  0.7384118371477801
  0.7593537166878133  0.2643429092211516  0.5015674459704935
  0.9990091473325241  0.7366584255840157  0.7490992186688311
  0.2539585317164266  0.4994666931402320  0.7522826782540228
  0.2467487089750500  0.2519477588375049  0.0020853860930117
  0.4979313669848502  0.2527562981400256  0.2474936898381508
  0.7544195717638149  0.9973899051158122  0.2501370196929645
  0.7511224382743132  0.2542833683026260  0.9956406045106611
  0.2487386281296092  0.7484367561435656  0.9997791251968220
  0.2477684456701225  0.2531818534884108  0.4976845353086071
  0.2502092027829377  0.2494938066899084  0.2494538742589625
  0.2434001588985061  0.0012056585185308  0.0063627071572455
  0.9998720845025424  0.2420180830263969  0.0001718162138876
  0.7492003194513330  0.2511550708898074  0.2493406993557365
  0.7563250178824482  0.0035440304770220  0.0018031003663111
  0.5012880453892069  0.0049015595281831  0.2496924535826128
  0.9972159727789294  0.4997104848175112  0.2563568658355612
  0.4986977508700995  0.7466900998193999  0.9946749550355136
  0.9972336550390425  0.0026944272986355  0.7486142331407801
  0.7468101384196497  0.2524582702747557  0.7493601965172451
  0.7551215600846520  0.0014318045914729  0.4981672807251286
  0.5016408662703467  0.2527626767034800  0.5015026666114785
  0.5025437298316159  0.0021958768459091  0.7501032563580163
  0.0027726958282136  0.9975779072151821  0.2481445725367365
  0.4994111415116536  0.2528125217180239  0.9969528980335017
  0.2456241173437845  0.7490250423648364  0.2477288287830684
  0.2541242028669866  0.4994449958365179  0.0049126537300488
  0.9986623146366896  0.7557265591868865  0.0011866512717042
  0.7533409723330020  0.7466134829915825  0.2511665221886035
  0.7455876087879180  0.5004384441933700  0.0007208059184080
  0.4997474576374332  0.4983775259741238  0.2502134843677087
  0.2523952934883428  0.2527286117231439  0.7504534512397847
  0.2453087451737369  0.0026922598297786  0.4940816182281865
  0.0011416623303650  0.2526159504408210  0.4995862306749698
  0.2532605700137917  0.7469013180986153  0.7528897915659869
  0.2496302489549753  0.4979555723316870  0.4953323691687037
  0.9958463281983511  0.7494553815494952  0.4985149562042458
  0.9978681120329352  0.5004577679808621  0.7434713941568488
  0.7459745209402533  0.7456980267941695  0.7492613534711527
  0.7539333824549727  0.5005548104924356  0.4993052081667325
  0.5041618262588931  0.7453337584847712  0.5063074143116549
  0.5018672070998021  0.4987654384190361  0.7511067055083045
  0.4990446876560498  0.0011339380550365  0.9969498231964091
  0.0009945399602910  0.5009791895481763  0.0036161045497588
  0.4988806178123342  0.7485638422900300  0.2496156256256987
  0.2448600376764496  0.9998913752001110  0.7497746227521380
  0.4979799117990947  0.9981940204968016  0.5028104655478741
  0.7547291856869155  0.9957857799695288  0.7494811234855618
  0.2483295353248274  0.7462802724932661  0.5009867062456239
  0.0007734103157490  0.7583494357645633  0.2508717161628050
  0.7447639605058713  0.5046668438779774  0.2486886756876215
  0.0037578634792835  0.0006749679770148  0.4907743032966234
  0.4984838103982440  0.5003183791756288  0.5010446306752382
  0.7457387963569960  0.5019632715821802  0.7515378168343650
  0.7514610018087251  0.7362525447640165  0.5028698051407352
 
  0.00000000E+00  0.00000000E+00  0.00000000E+00
  0.00000000E+00  0.00000000E+00  0.00000000E+00
  0.00000000E+00  0.00000000E+00  0.00000000E+00
  0.00000000E+00  0.00000000E+00  0.00000000E+00
  0.00000000E+00  0.00000000E+00  0.00000000E+00
  0.00000000E+00  0.00000000E+00  0.00000000E+00
  0.00000000E+00  0.00000000E+00  0.00000000E+00
  0.00000000E+00  0.00000000E+00  0.00000000E+00
  0.00000000E+00  0.00000000E+00  0.00000000E+00
  0.00000000E+00  0.00000000E+00  0.00000000E+00
  0.00000000E+00  0.00000000E+00  0.00000000E+00
  0.00000000E+00  0.00000000E+00  0.00000000E+00
  0.00000000E+00  0.00000000E+00  0.00000000E+00
  0.00000000E+00  0.00000000E+00  0.00000000E+00
  0.00000000E+00  0.00000000E+00  0.00000000E+00
  0.00000000E+00  0.00000000E+00  0.00000000E+00
  0.00000000E+00  0.00000000E+00  0.00000000E+00
  0.00000000E+00  0.00000000E+00  0.00000000E+00
  0.00000000E+00  0.00000000E+00  0.00000000E+00
  0.00000000E+00  0.00000000E+00  0.00000000E+00
  0.00000000E+00  0.00000000E+00  0.00000000E+00
  0.00000000E+00  0.00000000E+00  0.00000000E+00
  0.00000000E+00  0.00000000E+00  0.00000000E+00
  0.00000000E+00  0.00000000E+00  0.00000000E+00
  0.00000000E+00  0.00000000E+00  0.00000000E+00
  0.00000000E+00  0.00000000E+00  0.00000000E+00
  0.00000000E+00  0.00000000E+00  0.00000000E+00
  0.00000000E+00  0.00000000E+00  0.00000000E+00
  0.00000000E+00  0.00000000E+00  0.00000000E+00
  0.00000000E+00  0.00000000E+00  0.00000000E+00
  0.00000000E+00  0.00000000E+00  0.00000000E+00
  0.00000000E+00  0.00000000E+00  0.00000000E+00
  0.00000000E+00  0.00000000E+00  0.00000000E+00
  0.00000000E+00  0.00000000E+00  0.00000000E+00
  0.00000000E+00  0.00000000E+00  0.00000000E+00
  0.00000000E+00  0.00000000E+00  0.00000000E+00
  0.00000000E+00  0.00000000E+00  0.00000000E+00
  0.00000000E+00  0.00000000E+00  0.00000000E+00
  0.00000000E+00  0.00000000E+00  0.00000000E+00
  0.00000000E+00  0.00000000E+00  0.00000000E+00
  0.00000000E+00  0.00000000E+00  0.00000000E+00
  0.00000000E+00  0.00000000E+00  0.00000000E+00
  0.00000000E+00  0.00000000E+00  0.00000000E+00
  0.00000000E+00  0.00000000E+00  0.00000000E+00
  0.00000000E+00  0.00000000E+00  0.00000000E+00
  0.00000000E+00  0.00000000E+00  0.00000000E+00
  0.00000000E+00  0.00000000E+00  0.00000000E+00
  0.00000000E+00  0.00000000E+00  0.00000000E+00
  0.00000000E+00  0.00000000E+00  0.00000000E+00
  0.00000000E+00  0.00000000E+00  0.00000000E+00
  0.00000000E+00  0.00000000E+00  0.00000000E+00
  0.00000000E+00  0.00000000E+00  0.00000000E+00
  0.00000000E+00  0.00000000E+00  0.00000000E+00
  0.00000000E+00  0.00000000E+00  0.00000000E+00
  0.00000000E+00  0.00000000E+00  0.00000000E+00
  0.00000000E+00  0.00000000E+00  0.00000000E+00
  0.00000000E+00  0.00000000E+00  0.00000000E+00
  0.00000000E+00  0.00000000E+00  0.00000000E+00
  0.00000000E+00  0.00000000E+00  0.00000000E+00
  0.00000000E+00  0.00000000E+00  0.00000000E+00
  0.00000000E+00  0.00000000E+00  0.00000000E+00
  0.00000000E+00  0.00000000E+00  0.00000000E+00
  0.00000000E+00  0.00000000E+00  0.00000000E+00
  0.00000000E+00  0.00000000E+00  0.00000000E+00
