121-HfVCrMoW                            
   1.00000000000000     
     8.6806117078125951   -0.0092378284577158   -0.0140083555893464
    -0.0037140381499345    8.7818913214727434   -0.0100959979371663
     0.0171469032950020   -0.0255448370002139    8.6969804032367772
   V    W    Hf   N    C    Cr   Mo
     7     6     7    13    19     6     6
Direct
  0.0031725909110730  0.9743487969850387  0.9783521454744029
  0.2486942066651297  0.9854649484323146  0.2688112022508467
  0.2644027404620213  0.5231946680687503  0.2393773156639991
  0.4986004720217939  0.4701688702960858  0.9939338372471599
  0.4849237177675967  0.2600426087023944  0.7542473032697158
  0.0142239447516528  0.5005425729230328  0.4663041592427911
  0.5134708728065512  0.7703880037035179  0.7368139502719840
 -0.0005823183376035  0.2249053619912311  0.2663405378416351
  0.7582581183875645  0.7486961549009880 -0.0039699025082616
  0.0122399231384874  0.2754254456672109  0.7366049975249047
  0.7532091500683257  0.2695940347811498  0.5100980115575580
 -0.0033567957496112  0.7338693660812065  0.7517828255088695
  0.2609974880641887  0.5077299887094342  0.7642018193642510
  0.2407681820414560  0.2399762282053222  0.0027732451878042
  0.4968657449061999  0.2451339268539063  0.2502944239885335
  0.7361242187877775  0.9899373492659461  0.2650059779839921
  0.7560438263774889  0.2426119668742234  0.9873994596255725
  0.2775107493094058  0.7613635075783793  0.0026682600372929
  0.2547247595360292  0.2522597359200068  0.5020994862607165
  0.2493083686356980  0.7496835675246550  0.5047810416082638
  0.2466033165662768  0.2429641170398256  0.2524423849033487
  0.2484088294882877 -0.0008024510637893 -0.0014481022365603
 -0.0018026912244776  0.2290263283937997  0.0012632539217430
  0.7522069199426227  0.2437996413064809  0.2511694146516413
  0.7469733452266949  0.9935871910524747 -0.0044298390667555
  0.4905250772652945  0.9953909123139248  0.2694321739700140
  0.0050007017547239  0.4842822625340207  0.2451770922344664
  0.5170596319635032  0.7745371697354988 -0.0170373256782978
  0.9841623692403035  0.0161282835640664  0.7533691872573065
  0.7500929967179739  0.2460952257175464  0.7434073274059954
  0.7537059636424901  0.0113082415071562  0.5091464540878354
  0.5083132214970352  0.2487136818005012  0.5072085976886527
  0.5141918672485930  0.0107767336691929  0.7361053400646613
  0.0017034370486097 -0.0046778550714689  0.2438968062366921
  0.4992112182248907  0.2425537259521582 -0.0077381038059586
  0.2628414501706546  0.7519049376588234  0.2535928726319385
  0.2498124902686351  0.5029443906332877  0.0048626648148608
  0.0088030306680966  0.7498136447552896  0.0024109549067245
  0.7391730868355360  0.7434683517471390  0.2439988906192977
  0.7538925529304797  0.5028811008875788 -0.0090106981829358
  0.4941125448508392  0.5072580131252413  0.2391161653673269
  0.2529248076200440  0.2464435428360634  0.7520489416885178
  0.2540179455551855  0.9988741500940220  0.5183398394236564
  0.0002060149693254  0.2579226583555719  0.5019547861456002
  0.2576854601484545  0.7565439777126889  0.7541382295347915
  0.2473626238184479  0.5017453142678100  0.4952728081514422
  0.9954611821156151  0.7462546501408104  0.5029675063151764
  0.9989037449066323  0.5028707093734297  0.7612611859669972
  0.7510676786201129  0.7572262200108559  0.7435345445073736
  0.7602045798377581  0.4965396204534619  0.4934131083175359
  0.5068490300168210  0.7633507225751480  0.5002906882536035
  0.4948669006903062  0.5101431244778379  0.7547300393024765
  0.5102040218841688  0.0174266344613658  0.9518807712728764
 -0.0044070878802615  0.5358232166992652  0.0288891608339257
  0.5051390036977000  0.7323424086865117  0.2829531177303885
  0.2072675242383881 -0.0194771249626851  0.7525259211144094
  0.4711477407788345  0.9912440685200247  0.5149079520559655
  0.7297204029400521  0.9765345578233334  0.7638695264464930
 -0.0012666122907651  0.7667489640939952  0.2537260053306897
  0.7317514219293934  0.5131665672155787  0.2298921812507687
  0.0119157240526886  0.0006491308544712  0.5043022394962150
  0.4967241236321413  0.5078205885024285  0.4929821116960426
  0.7249611846791031  0.5001997130167031  0.7505977618558025
  0.7527016391615474  0.7223155850677688  0.5006661001152437
 
  0.00000000E+00  0.00000000E+00  0.00000000E+00
  0.00000000E+00  0.00000000E+00  0.00000000E+00
  0.00000000E+00  0.00000000E+00  0.00000000E+00
  0.00000000E+00  0.00000000E+00  0.00000000E+00
  0.00000000E+00  0.00000000E+00  0.00000000E+00
  0.00000000E+00  0.00000000E+00  0.00000000E+00
  0.00000000E+00  0.00000000E+00  0.00000000E+00
  0.00000000E+00  0.00000000E+00  0.00000000E+00
  0.00000000E+00  0.00000000E+00  0.00000000E+00
  0.00000000E+00  0.00000000E+00  0.00000000E+00
  0.00000000E+00  0.00000000E+00  0.00000000E+00
  0.00000000E+00  0.00000000E+00  0.00000000E+00
  0.00000000E+00  0.00000000E+00  0.00000000E+00
  0.00000000E+00  0.00000000E+00  0.00000000E+00
  0.00000000E+00  0.00000000E+00  0.00000000E+00
  0.00000000E+00  0.00000000E+00  0.00000000E+00
  0.00000000E+00  0.00000000E+00  0.00000000E+00
  0.00000000E+00  0.00000000E+00  0.00000000E+00
  0.00000000E+00  0.00000000E+00  0.00000000E+00
  0.00000000E+00  0.00000000E+00  0.00000000E+00
  0.00000000E+00  0.00000000E+00  0.00000000E+00
  0.00000000E+00  0.00000000E+00  0.00000000E+00
  0.00000000E+00  0.00000000E+00  0.00000000E+00
  0.00000000E+00  0.00000000E+00  0.00000000E+00
  0.00000000E+00  0.00000000E+00  0.00000000E+00
  0.00000000E+00  0.00000000E+00  0.00000000E+00
  0.00000000E+00  0.00000000E+00  0.00000000E+00
  0.00000000E+00  0.00000000E+00  0.00000000E+00
  0.00000000E+00  0.00000000E+00  0.00000000E+00
  0.00000000E+00  0.00000000E+00  0.00000000E+00
  0.00000000E+00  0.00000000E+00  0.00000000E+00
  0.00000000E+00  0.00000000E+00  0.00000000E+00
  0.00000000E+00  0.00000000E+00  0.00000000E+00
  0.00000000E+00  0.00000000E+00  0.00000000E+00
  0.00000000E+00  0.00000000E+00  0.00000000E+00
  0.00000000E+00  0.00000000E+00  0.00000000E+00
  0.00000000E+00  0.00000000E+00  0.00000000E+00
  0.00000000E+00  0.00000000E+00  0.00000000E+00
  0.00000000E+00  0.00000000E+00  0.00000000E+00
  0.00000000E+00  0.00000000E+00  0.00000000E+00
  0.00000000E+00  0.00000000E+00  0.00000000E+00
  0.00000000E+00  0.00000000E+00  0.00000000E+00
  0.00000000E+00  0.00000000E+00  0.00000000E+00
  0.00000000E+00  0.00000000E+00  0.00000000E+00
  0.00000000E+00  0.00000000E+00  0.00000000E+00
  0.00000000E+00  0.00000000E+00  0.00000000E+00
  0.00000000E+00  0.00000000E+00  0.00000000E+00
  0.00000000E+00  0.00000000E+00  0.00000000E+00
  0.00000000E+00  0.00000000E+00  0.00000000E+00
  0.00000000E+00  0.00000000E+00  0.00000000E+00
  0.00000000E+00  0.00000000E+00  0.00000000E+00
  0.00000000E+00  0.00000000E+00  0.00000000E+00
  0.00000000E+00  0.00000000E+00  0.00000000E+00
  0.00000000E+00  0.00000000E+00  0.00000000E+00
  0.00000000E+00  0.00000000E+00  0.00000000E+00
  0.00000000E+00  0.00000000E+00  0.00000000E+00
  0.00000000E+00  0.00000000E+00  0.00000000E+00
  0.00000000E+00  0.00000000E+00  0.00000000E+00
  0.00000000E+00  0.00000000E+00  0.00000000E+00
  0.00000000E+00  0.00000000E+00  0.00000000E+00
  0.00000000E+00  0.00000000E+00  0.00000000E+00
  0.00000000E+00  0.00000000E+00  0.00000000E+00
  0.00000000E+00  0.00000000E+00  0.00000000E+00
  0.00000000E+00  0.00000000E+00  0.00000000E+00
