64-TiZrTaCrW                            
   1.00000000000000     
     8.8128539280020846    0.0235927242135194   -0.0141132134741248
     0.0301320885768870    8.8145604417372443    0.0053712438145947
     0.0175246219071692   -0.0098672342908789    8.7994200397284601
  Zr              Ta              Ti              N               C               Cr              W             
     7     6     7    13    19     6     6
Direct
  0.0008076524150868  0.9969696661682618  0.9967304703182135
  0.2688945334463703  0.0024139696432165  0.2427612098024667
  0.2453994058868541  0.4947561858817493  0.2462175006946237
  0.5006647336311043  0.4996306934249371  0.0023167251650286
  0.5059519900719301  0.2474118675365521  0.7420722783706983
  0.9975254095674495  0.5021558682662118  0.5010718701089043
  0.4966077104354911  0.7591220724358169  0.7493207861195742
  0.9918145563950920  0.2402010652730862  0.2496683941634376
  0.7543528949315743  0.7465201603057489  0.0120230499318916
  0.0016877108408673  0.2500388162411483  0.7511498441666167
  0.7523008629227026  0.2443712149644165  0.4976608028493167
  0.0001249217008308  0.7509062756862225  0.7495811419130703
  0.2494348573164932  0.4953534351862580  0.7503390376316824
  0.2596738869613421  0.2422598756123758  0.9896197464732954
  0.5109054316589624  0.2543902674944483  0.2523755741115422
  0.7319342713785142  0.9927211031706744  0.2593824277573356
  0.7412114138459379  0.2410511981304532  0.9997745879468062
  0.2468106371739608  0.7471730859401250  0.9963873188949338
  0.2510369963895511  0.2459719796689154  0.5064014352403791
  0.2509301936146185  0.7513747093408887  0.5022518629939228
  0.2473289844930652  0.2481209347716978  0.2475010259832985
  0.2611993030286457  0.0008223725761720  0.9894125189380686
  0.0004741969927838  0.2546636433212545  0.0000959022855521
  0.7472824819797771  0.2404820319866670  0.2464249054451765
  0.7397065568439469  0.9975897750661975  0.0058447086014870
  0.5113430633366970  0.0004232581978216  0.2786496776160824
  0.9911013583742367  0.4993484329365370  0.2419859799818936
  0.4990576116337948  0.7643421571944624  0.0087532659647337
  0.9884620986907217  0.0042050355715411  0.7399250304093804
  0.7575882158249078  0.2489791474734465  0.7500910710743460
  0.7633795501993773  0.0050138553354421  0.4931379899326065
  0.5010655611332657  0.2460810945097015  0.4892064416173827
  0.5258986582831079  0.0024683015427043  0.7414455760930326
  0.9983898503735874  0.0004925167396479  0.2531041657401462
  0.5009151365185185  0.2377388105468407  0.0039137979264403
  0.2535575293005186  0.7497340138060888  0.2491601380383781
  0.2399221798661024  0.5006930935702716  0.9931410226290660
  0.0027479881243928  0.7405595324701688  0.0043178747519230
  0.7478962671693860  0.7462309696052442  0.2534322761099122
  0.7633640095054172  0.4934013613481751  0.0058679603053297
  0.5000083468878112  0.5022791341359103  0.2529729097460177
  0.2482593416520674  0.2476297346864642  0.7490357150778996
  0.2549365067834845  0.9996787125899173  0.5126719092038612
  0.0036224533352645  0.2464590228879998  0.4999407167818911
  0.2420909078902855  0.7565888288080476  0.7512153295500467
  0.2566539900299848  0.5019660711568636  0.5025921485396768
  0.9986856954711718  0.7594727396183232  0.4994901649824749
  0.9998786276592433  0.5011908877474113  0.7555450704218386
  0.7522688344258520  0.7546771575379772  0.7501005111276581
  0.7429575676638533  0.4951062286701695  0.5071060306180950
  0.4980072525969299  0.7656614830575074  0.4868372606180529
  0.5040954289325966  0.5030840252659812  0.7415562452705952
  0.5140521263590171  0.0118642067616019  0.9631658940957466
  0.9970407487306314  0.5148361848221904  0.9796787731785316
  0.4756616041056070  0.7361724403535576  0.2564893132983847
  0.2267734217139455  0.0150419507082740  0.7515755588502979
  0.4674263162055116  0.9948152778286788  0.5189444057983075
  0.7397002348298646  0.9701139646956446  0.7816236775971588
  0.0171106928849462  0.7672804072801265  0.2551925656928830
  0.7389603442448073  0.4942007718573030  0.2539201065837169
  0.0218353245544604  0.0038036431230974  0.4954998218536816
  0.5027820088650385  0.5192874934780146  0.4886945226902270
  0.7547471810283896  0.5162710618418505  0.7636302288458741
  0.7436947468921339  0.7363344731455042  0.4900038614790487
 
  0.00000000E+00  0.00000000E+00  0.00000000E+00
  0.00000000E+00  0.00000000E+00  0.00000000E+00
  0.00000000E+00  0.00000000E+00  0.00000000E+00
  0.00000000E+00  0.00000000E+00  0.00000000E+00
  0.00000000E+00  0.00000000E+00  0.00000000E+00
  0.00000000E+00  0.00000000E+00  0.00000000E+00
  0.00000000E+00  0.00000000E+00  0.00000000E+00
  0.00000000E+00  0.00000000E+00  0.00000000E+00
  0.00000000E+00  0.00000000E+00  0.00000000E+00
  0.00000000E+00  0.00000000E+00  0.00000000E+00
  0.00000000E+00  0.00000000E+00  0.00000000E+00
  0.00000000E+00  0.00000000E+00  0.00000000E+00
  0.00000000E+00  0.00000000E+00  0.00000000E+00
  0.00000000E+00  0.00000000E+00  0.00000000E+00
  0.00000000E+00  0.00000000E+00  0.00000000E+00
  0.00000000E+00  0.00000000E+00  0.00000000E+00
  0.00000000E+00  0.00000000E+00  0.00000000E+00
  0.00000000E+00  0.00000000E+00  0.00000000E+00
  0.00000000E+00  0.00000000E+00  0.00000000E+00
  0.00000000E+00  0.00000000E+00  0.00000000E+00
  0.00000000E+00  0.00000000E+00  0.00000000E+00
  0.00000000E+00  0.00000000E+00  0.00000000E+00
  0.00000000E+00  0.00000000E+00  0.00000000E+00
  0.00000000E+00  0.00000000E+00  0.00000000E+00
  0.00000000E+00  0.00000000E+00  0.00000000E+00
  0.00000000E+00  0.00000000E+00  0.00000000E+00
  0.00000000E+00  0.00000000E+00  0.00000000E+00
  0.00000000E+00  0.00000000E+00  0.00000000E+00
  0.00000000E+00  0.00000000E+00  0.00000000E+00
  0.00000000E+00  0.00000000E+00  0.00000000E+00
  0.00000000E+00  0.00000000E+00  0.00000000E+00
  0.00000000E+00  0.00000000E+00  0.00000000E+00
  0.00000000E+00  0.00000000E+00  0.00000000E+00
  0.00000000E+00  0.00000000E+00  0.00000000E+00
  0.00000000E+00  0.00000000E+00  0.00000000E+00
  0.00000000E+00  0.00000000E+00  0.00000000E+00
  0.00000000E+00  0.00000000E+00  0.00000000E+00
  0.00000000E+00  0.00000000E+00  0.00000000E+00
  0.00000000E+00  0.00000000E+00  0.00000000E+00
  0.00000000E+00  0.00000000E+00  0.00000000E+00
  0.00000000E+00  0.00000000E+00  0.00000000E+00
  0.00000000E+00  0.00000000E+00  0.00000000E+00
  0.00000000E+00  0.00000000E+00  0.00000000E+00
  0.00000000E+00  0.00000000E+00  0.00000000E+00
  0.00000000E+00  0.00000000E+00  0.00000000E+00
  0.00000000E+00  0.00000000E+00  0.00000000E+00
  0.00000000E+00  0.00000000E+00  0.00000000E+00
  0.00000000E+00  0.00000000E+00  0.00000000E+00
  0.00000000E+00  0.00000000E+00  0.00000000E+00
  0.00000000E+00  0.00000000E+00  0.00000000E+00
  0.00000000E+00  0.00000000E+00  0.00000000E+00
  0.00000000E+00  0.00000000E+00  0.00000000E+00
  0.00000000E+00  0.00000000E+00  0.00000000E+00
  0.00000000E+00  0.00000000E+00  0.00000000E+00
  0.00000000E+00  0.00000000E+00  0.00000000E+00
  0.00000000E+00  0.00000000E+00  0.00000000E+00
  0.00000000E+00  0.00000000E+00  0.00000000E+00
  0.00000000E+00  0.00000000E+00  0.00000000E+00
  0.00000000E+00  0.00000000E+00  0.00000000E+00
  0.00000000E+00  0.00000000E+00  0.00000000E+00
  0.00000000E+00  0.00000000E+00  0.00000000E+00
  0.00000000E+00  0.00000000E+00  0.00000000E+00
  0.00000000E+00  0.00000000E+00  0.00000000E+00
  0.00000000E+00  0.00000000E+00  0.00000000E+00
