52-HfVNbTaW                             
   1.00000000000000     
     8.8370252933365467    0.0016106699113149    0.0287156956952174
     0.0076296618125161    8.8154428040998152   -0.0221798876046168
     0.0606292634103133   -0.0372211348928149    8.8628355631249995
   Hf   Nb   V    N    C    W    Ta
     7     6     7    13    19     6     6
Direct
  0.0057204054342083  0.0067303746586878  0.9980761000943188
  0.2621149896903746  0.0069018966329188  0.2429888409896418
  0.2487501250171161  0.4923773210556363  0.2518867607831318
  0.4993153764299104  0.4996374479999639  0.9994814293699885
  0.4992614535228990  0.2429877950138230  0.7471612003395748
  0.0021991609285910  0.5014136579799697  0.5029348812356164
  0.4927582384853743  0.7574252058634520  0.7547828672385447
  0.9944970339678867  0.2370867641017993  0.2565028419294431
  0.7599953103547366  0.7506904819076445  0.0042947175201552
  0.0022137901124078  0.2574792328088312  0.7483877040779970
  0.7566474944234591  0.2441355808203133  0.4878844093313463
  0.0012116953192195  0.7471518567308117  0.7533348495621917
  0.2481583865719681  0.5008435362563450  0.7496827114602781
  0.2537622285398429  0.2687455640029369  0.9840045366941652
  0.5129870519378774  0.2632391511031549  0.2392252542519802
  0.7447569605536227  0.9981802374490741  0.2767244202202486
  0.7255982026132325  0.2440849988035945  0.0092814191162979
  0.2300715233536715  0.7284732724904452  0.0021485576088430
  0.2344087906994052  0.2434314450219240  0.5164376060115790
  0.2594682096556788  0.7597790870506729  0.4946123627393634
  0.2493607533640747  0.2488752394036527  0.2468078738180704
  0.2581655300862798  0.0021201512956374  0.9928695363788468
  0.9981396161775711  0.2541972108859842  0.0027431155095181
  0.7452736177515601  0.2442707955330611  0.2397420560067881
  0.7564918506806281  0.0076815287039034  0.0184034962926790
  0.5127873986175140  0.9998536187907160  0.2348935632887640
  0.9977534127472464  0.4992491163449738  0.2471625562250955
  0.4957694154185854  0.7565287507725312  0.0050496205095076
  0.9848564085359670  0.0038832819130417  0.7498852330313802
  0.7501842818757084  0.2445357867360085  0.7516344847684548
  0.7566238227570836  0.0000057262630959  0.5204008229772410
  0.5003154415866440  0.2450134422399411  0.4911105474726064
  0.4916007271681881  0.0004696785223319  0.7350010304182599
  0.9987922710059259  0.9995587996835518  0.2541948478532535
  0.4902909997337337  0.2474465340954859  0.0023107510996053
  0.2545299444489020  0.7501812892173934  0.2453283726546888
  0.2457878605050092  0.4984730424015205  0.9996092060448059
  0.0035286342018719  0.7480839112225750  0.0033755777367406
  0.7501405805533231  0.7536894970362492  0.2522775409622536
  0.7543810448635297  0.4918630590493211  0.0009577921838831
  0.5017058271121575  0.4953006711794827  0.2519187365083328
  0.2474246282623596  0.2467934743213537  0.7510417060151396
  0.2660022910534554  0.0036173264096789  0.4975584439612539
  0.0039095378046158  0.2488177770752774  0.5017766977153852
  0.2448670807039151  0.7549182440904381  0.7528564174296092
  0.2539612360372734  0.4971547139527690  0.5009706683651423
  0.0038681819839782  0.7546785845823736  0.5006231114960643
  0.9983804081197784  0.5022392843826485  0.7505866417420312
  0.7479592247066226  0.7508841427153166  0.7516321168784998
  0.7473004430481075  0.4983752415136481  0.4978842427935062
  0.4955342231416515  0.7486381429965656  0.5020500373018537
  0.5003934199722222  0.4997383711922274  0.7458099753542088
  0.5215182559955304  0.0105070136314794  0.9874610653137365
  0.0017541771464767  0.5015192099796228  0.9891146118244574
  0.4966939666429530  0.7405009412278415  0.2594395198003573
  0.2373172062720845  0.9984890048438722  0.7383209597115270
  0.5090186819367175  0.9883813809472163  0.4747563883547977
  0.7338648983858270  0.9874975008386000  0.7767136707476779
  0.0049732407224490  0.7623619819792007  0.2525429405250022
  0.7484449888149621  0.4983686994216056  0.2479093356167860
  0.0154623286384002  0.0019479552504496  0.5055523521048882
  0.4970905869065515  0.5027401796398537  0.4998318204233697
  0.7492341016853785  0.5057699123872218  0.7537851992158473
  0.7446514012156996  0.7539846285782926  0.4962719809933892
 
  0.00000000E+00  0.00000000E+00  0.00000000E+00
  0.00000000E+00  0.00000000E+00  0.00000000E+00
  0.00000000E+00  0.00000000E+00  0.00000000E+00
  0.00000000E+00  0.00000000E+00  0.00000000E+00
  0.00000000E+00  0.00000000E+00  0.00000000E+00
  0.00000000E+00  0.00000000E+00  0.00000000E+00
  0.00000000E+00  0.00000000E+00  0.00000000E+00
  0.00000000E+00  0.00000000E+00  0.00000000E+00
  0.00000000E+00  0.00000000E+00  0.00000000E+00
  0.00000000E+00  0.00000000E+00  0.00000000E+00
  0.00000000E+00  0.00000000E+00  0.00000000E+00
  0.00000000E+00  0.00000000E+00  0.00000000E+00
  0.00000000E+00  0.00000000E+00  0.00000000E+00
  0.00000000E+00  0.00000000E+00  0.00000000E+00
  0.00000000E+00  0.00000000E+00  0.00000000E+00
  0.00000000E+00  0.00000000E+00  0.00000000E+00
  0.00000000E+00  0.00000000E+00  0.00000000E+00
  0.00000000E+00  0.00000000E+00  0.00000000E+00
  0.00000000E+00  0.00000000E+00  0.00000000E+00
  0.00000000E+00  0.00000000E+00  0.00000000E+00
  0.00000000E+00  0.00000000E+00  0.00000000E+00
  0.00000000E+00  0.00000000E+00  0.00000000E+00
  0.00000000E+00  0.00000000E+00  0.00000000E+00
  0.00000000E+00  0.00000000E+00  0.00000000E+00
  0.00000000E+00  0.00000000E+00  0.00000000E+00
  0.00000000E+00  0.00000000E+00  0.00000000E+00
  0.00000000E+00  0.00000000E+00  0.00000000E+00
  0.00000000E+00  0.00000000E+00  0.00000000E+00
  0.00000000E+00  0.00000000E+00  0.00000000E+00
  0.00000000E+00  0.00000000E+00  0.00000000E+00
  0.00000000E+00  0.00000000E+00  0.00000000E+00
  0.00000000E+00  0.00000000E+00  0.00000000E+00
  0.00000000E+00  0.00000000E+00  0.00000000E+00
  0.00000000E+00  0.00000000E+00  0.00000000E+00
  0.00000000E+00  0.00000000E+00  0.00000000E+00
  0.00000000E+00  0.00000000E+00  0.00000000E+00
  0.00000000E+00  0.00000000E+00  0.00000000E+00
  0.00000000E+00  0.00000000E+00  0.00000000E+00
  0.00000000E+00  0.00000000E+00  0.00000000E+00
  0.00000000E+00  0.00000000E+00  0.00000000E+00
  0.00000000E+00  0.00000000E+00  0.00000000E+00
  0.00000000E+00  0.00000000E+00  0.00000000E+00
  0.00000000E+00  0.00000000E+00  0.00000000E+00
  0.00000000E+00  0.00000000E+00  0.00000000E+00
  0.00000000E+00  0.00000000E+00  0.00000000E+00
  0.00000000E+00  0.00000000E+00  0.00000000E+00
  0.00000000E+00  0.00000000E+00  0.00000000E+00
  0.00000000E+00  0.00000000E+00  0.00000000E+00
  0.00000000E+00  0.00000000E+00  0.00000000E+00
  0.00000000E+00  0.00000000E+00  0.00000000E+00
  0.00000000E+00  0.00000000E+00  0.00000000E+00
  0.00000000E+00  0.00000000E+00  0.00000000E+00
  0.00000000E+00  0.00000000E+00  0.00000000E+00
  0.00000000E+00  0.00000000E+00  0.00000000E+00
  0.00000000E+00  0.00000000E+00  0.00000000E+00
  0.00000000E+00  0.00000000E+00  0.00000000E+00
  0.00000000E+00  0.00000000E+00  0.00000000E+00
  0.00000000E+00  0.00000000E+00  0.00000000E+00
  0.00000000E+00  0.00000000E+00  0.00000000E+00
  0.00000000E+00  0.00000000E+00  0.00000000E+00
  0.00000000E+00  0.00000000E+00  0.00000000E+00
  0.00000000E+00  0.00000000E+00  0.00000000E+00
  0.00000000E+00  0.00000000E+00  0.00000000E+00
  0.00000000E+00  0.00000000E+00  0.00000000E+00
