69-TiHfTaCrMo                           
   1.00000000000000     
     8.7689356530914768    0.0252396471813151   -0.0096647380094823
     0.0315193607487976    8.7849026843013718   -0.0008654283451268
     0.0218057918412336   -0.0160406792862270    8.7765328981049393
   Hf   Ta   Ti   N    C    Cr   Mo
     7     6     7    13    19     6     6
Direct
  0.0014072553220571  0.9961980865647858  0.9978746162293749
  0.2680537650504429  0.0007755221655041  0.2468631310826685
  0.2432323500595991  0.4957955589570574  0.2458526958487237
  0.5015013672002442  0.4994754604278219  0.0002148370057599
  0.5055828135799879  0.2445074680179217  0.7442335364877797
 -0.0026632428514542  0.5024124174748554  0.4999582993454797
  0.4967922856782001  0.7589513445278635  0.7478524495548313
  0.9932683393876031  0.2388737135894497  0.2513792642999439
  0.7540731764166760  0.7468548229920413  0.0095968379310582
  0.0012564432804873  0.2507162404268688  0.7502649222460901
  0.7501121555721364  0.2463445359197719  0.5002540556144215
 -0.0005688911899877  0.7504954921157391  0.7488013335049860
  0.2515971665122448  0.4964921040950822  0.7484492198344066
  0.2571521473233351  0.2431559244234115  0.9904034386570597
  0.5085920796896082  0.2549631800960043  0.2516127187907480
  0.7353008829046582  0.9889024074317516  0.2624033547060819
  0.7444250401761512  0.2457341292241020  0.9990318073206119
  0.2475581779651495  0.7477956515594072 -0.0012999547521612
  0.2521720166576121  0.2470150019385914  0.5052864181977765
  0.2506679474272828  0.7516569629379694  0.4997065901576654
  0.2500876532788489  0.2482910591122017  0.2474243917953996
  0.2555264986089141  0.0011730452066909  0.9965877541731318
  0.0008214811160876  0.2502477450530408 -0.0004860034165496
  0.7482383680641204  0.2434568452183688  0.2495841604481989
  0.7462838136944023 -0.0007595942491223  0.0077124972176476
  0.5091364433443064  0.0087204565731899  0.2533692036885622
  0.9950197771380433  0.4919194824356846  0.2466433025521784
  0.5008399904403465  0.7593806025902196  0.0017963455081181
  0.9895285801375329  0.0037667921335961  0.7460050654040153
  0.7538478700540268  0.2415131124061834  0.7504797233049086
  0.7540712595318871  0.0076573855657072  0.4915438386575011
  0.5016414333325299  0.2461234695030296  0.4932619500327357
  0.5170619905167090  0.0014490519179795  0.7465890864434475
  0.9989518990083758  0.0016143145147702  0.2510467791472789
  0.5021948588268405  0.2411847429459792  0.0019671476396299
  0.2580616512951196  0.7495243837975282  0.2488557016493364
  0.2421065372981555  0.5003200273685650  0.9946909935767468
  0.0027726974353128  0.7423563952959127  0.0025808494622399
  0.7419794315703074  0.7490759990112613  0.2519512769558168
  0.7618759725516052  0.4955222770922437  0.0085617498520379
  0.4939810007816475  0.4988650769085003  0.2495991676934968
  0.2501218523138336  0.2465410515045308  0.7480068781450612
  0.2594268260076090  0.0000016514435346  0.5110352640600756
  0.0028779876469829  0.2488861240716091  0.5001247392006042
  0.2444037784404645  0.7574931200821837  0.7501320105708433
  0.2530884932840830  0.5012347163159599  0.4998706859068157
  0.0002443317327554  0.7562217152843663  0.5010567632023593
  0.0016328456792485  0.5015031934328431  0.7532768098822865
  0.7498602032598051  0.7597491694194843  0.7490612888456554
  0.7467858306128561  0.4954230916343939  0.5075218878840092
  0.4978614588688374  0.7643085452996189  0.4870686201449873
  0.5025312320390567  0.5024040781827968  0.7448300774301975
  0.5202308577008735  0.0103171784872138  0.9754727223772055
  0.9946954809339039  0.5127277377403425  0.9794461879817795
  0.4873592294914719  0.7261974592833822  0.2619297792434550
  0.2247393710126150  0.0132927327907951  0.7377946941111438
  0.4776427612860913  0.9920750647684474  0.5144646744871900
  0.7348181399217488  0.9763625247376405  0.7847407668913948
  0.0097431490529390  0.7682198554480507  0.2573294084884256
  0.7320024536401185  0.5078405416341045  0.2565730415018797
  0.0204668718695723  0.0016968452928334  0.4968605139852307
  0.5059556891285786  0.5160456012194098  0.4886164082086313
  0.7551221560452365  0.5175066343442728  0.7639447688175678
  0.7448468918441461  0.7354324232946582  0.4923375907840353
 
  0.00000000E+00  0.00000000E+00  0.00000000E+00
  0.00000000E+00  0.00000000E+00  0.00000000E+00
  0.00000000E+00  0.00000000E+00  0.00000000E+00
  0.00000000E+00  0.00000000E+00  0.00000000E+00
  0.00000000E+00  0.00000000E+00  0.00000000E+00
  0.00000000E+00  0.00000000E+00  0.00000000E+00
  0.00000000E+00  0.00000000E+00  0.00000000E+00
  0.00000000E+00  0.00000000E+00  0.00000000E+00
  0.00000000E+00  0.00000000E+00  0.00000000E+00
  0.00000000E+00  0.00000000E+00  0.00000000E+00
  0.00000000E+00  0.00000000E+00  0.00000000E+00
  0.00000000E+00  0.00000000E+00  0.00000000E+00
  0.00000000E+00  0.00000000E+00  0.00000000E+00
  0.00000000E+00  0.00000000E+00  0.00000000E+00
  0.00000000E+00  0.00000000E+00  0.00000000E+00
  0.00000000E+00  0.00000000E+00  0.00000000E+00
  0.00000000E+00  0.00000000E+00  0.00000000E+00
  0.00000000E+00  0.00000000E+00  0.00000000E+00
  0.00000000E+00  0.00000000E+00  0.00000000E+00
  0.00000000E+00  0.00000000E+00  0.00000000E+00
  0.00000000E+00  0.00000000E+00  0.00000000E+00
  0.00000000E+00  0.00000000E+00  0.00000000E+00
  0.00000000E+00  0.00000000E+00  0.00000000E+00
  0.00000000E+00  0.00000000E+00  0.00000000E+00
  0.00000000E+00  0.00000000E+00  0.00000000E+00
  0.00000000E+00  0.00000000E+00  0.00000000E+00
  0.00000000E+00  0.00000000E+00  0.00000000E+00
  0.00000000E+00  0.00000000E+00  0.00000000E+00
  0.00000000E+00  0.00000000E+00  0.00000000E+00
  0.00000000E+00  0.00000000E+00  0.00000000E+00
  0.00000000E+00  0.00000000E+00  0.00000000E+00
  0.00000000E+00  0.00000000E+00  0.00000000E+00
  0.00000000E+00  0.00000000E+00  0.00000000E+00
  0.00000000E+00  0.00000000E+00  0.00000000E+00
  0.00000000E+00  0.00000000E+00  0.00000000E+00
  0.00000000E+00  0.00000000E+00  0.00000000E+00
  0.00000000E+00  0.00000000E+00  0.00000000E+00
  0.00000000E+00  0.00000000E+00  0.00000000E+00
  0.00000000E+00  0.00000000E+00  0.00000000E+00
  0.00000000E+00  0.00000000E+00  0.00000000E+00
  0.00000000E+00  0.00000000E+00  0.00000000E+00
  0.00000000E+00  0.00000000E+00  0.00000000E+00
  0.00000000E+00  0.00000000E+00  0.00000000E+00
  0.00000000E+00  0.00000000E+00  0.00000000E+00
  0.00000000E+00  0.00000000E+00  0.00000000E+00
  0.00000000E+00  0.00000000E+00  0.00000000E+00
  0.00000000E+00  0.00000000E+00  0.00000000E+00
  0.00000000E+00  0.00000000E+00  0.00000000E+00
  0.00000000E+00  0.00000000E+00  0.00000000E+00
  0.00000000E+00  0.00000000E+00  0.00000000E+00
  0.00000000E+00  0.00000000E+00  0.00000000E+00
  0.00000000E+00  0.00000000E+00  0.00000000E+00
  0.00000000E+00  0.00000000E+00  0.00000000E+00
  0.00000000E+00  0.00000000E+00  0.00000000E+00
  0.00000000E+00  0.00000000E+00  0.00000000E+00
  0.00000000E+00  0.00000000E+00  0.00000000E+00
  0.00000000E+00  0.00000000E+00  0.00000000E+00
  0.00000000E+00  0.00000000E+00  0.00000000E+00
  0.00000000E+00  0.00000000E+00  0.00000000E+00
  0.00000000E+00  0.00000000E+00  0.00000000E+00
  0.00000000E+00  0.00000000E+00  0.00000000E+00
  0.00000000E+00  0.00000000E+00  0.00000000E+00
  0.00000000E+00  0.00000000E+00  0.00000000E+00
  0.00000000E+00  0.00000000E+00  0.00000000E+00
