21-TiHfVNbTa                            
   1.00000000000000     
     8.8134774035487151    0.0044010946690969   -0.0091384075297897
     0.0042001503354115    8.9018654148389942   -0.0006343576626306
    -0.0091119510700516   -0.0005829258607804    8.8121827453353223
   Ti   Ta   Hf   N    C    Nb   V 
     7     6     7    13    19     6     6
Direct
 -0.0018335164928884 -0.0086094602936511  0.0128358289972851
  0.2447070772063186 -0.0082918032231927  0.2543390449044941
  0.2595822132003650  0.5081434013248177  0.2514877726942822
  0.5020530050199778  0.4940738254591546 -0.0038424018601613
  0.4946986492485646  0.2539682802665371  0.7499673540467003
 -0.0026998974943588  0.5040588455151193  0.4942968693991092
  0.5040663106968357  0.7444069395547314  0.7440712476354834
 -0.0009272955817023  0.2413715697698323  0.2597565919469619
  0.7503612763560118  0.7430076240141770  0.0070871835295805
  0.0048434662310174  0.2565945178891683  0.7409950617358277
  0.7517715206431155  0.2687324292618295  0.5074359662796124
 -0.0063571983702588  0.7472211817692247  0.7440045549169320
  0.2561519375206681  0.4999779942255747  0.7478434774633705
  0.2462821594724505  0.2494991592729344  0.0011480819492928
  0.5022677398404148  0.2540484494079840  0.2512425582920412
  0.7525367268488401 -0.0080201730879038  0.2590934903734435
  0.7529972537982988  0.2541558320754809 -0.0081061535090046
  0.2518796874697754  0.7509010125500863  0.0010272927810244
  0.2517315706876446  0.2515091346055623  0.4985251846919775
  0.2449659108407289  0.7477492546541229  0.4989164195289365
  0.2488781714608179  0.2489618448346247  0.2496977878924683
  0.2473404281103136 -0.0002260720889044  0.0049693352699080
 -0.0002138519357389  0.2446510092700534  0.0012840629308269
  0.7524854648994005  0.2503535845627140  0.2534117205791721
  0.7532824493514237 -0.0013206818600450  0.0010127609539676
  0.4986830515227622  0.0011849935400564  0.2497532595442662
 -0.0003164323918124  0.4913900979837069  0.2505072820267620
  0.5030161618922004  0.7514559756980268 -0.0031576706801552
 -0.0046588690639556  0.0019041374313070  0.7511044253981353
  0.7487779655027537  0.2478558695072336  0.7463358114197104
  0.7507120311823202  0.0076994771190357  0.5038763058839402
  0.5064007073084605  0.2482056073391774  0.5029688795545199
  0.5001236388721402 -0.0017156980317929  0.7474661178769275
  0.0034050672036791 -0.0027136938738437  0.2519337461158178
  0.5010271519384037  0.2526940840528020 -0.0039940440532272
  0.2470372505464829  0.7492991132183420  0.2501164055544792
  0.2512084252185269  0.5013367658779815  0.0032682973900729
 -0.0028313486774482  0.7524206995239670  0.0025931900126313
  0.7563599522610208  0.7406591971655678  0.2551540786467722
  0.7470197739208033  0.5027424267564450  0.0014741020498923
  0.5022697151159707  0.5023100835975320  0.2523488674670281
  0.2528483990080087  0.2513322264248760  0.7497798008650265
  0.2457654532078196 -0.0011142039603590  0.4969929436245531
 -0.0022572465108619  0.2486246612173677  0.4999693984808429
  0.2499011414252326  0.7503679807191456  0.7500573429494433
  0.2529990833846381  0.5002896373057142  0.4958692973870989
 -0.0097619876081904  0.7535700906688023  0.4951226213353250
 -0.0055174281064427  0.5003009643345422  0.7470790297742976
  0.7456564673952027  0.7441758895881307  0.7461318101034914
  0.7494919955306428  0.5058856279565830  0.4983039768119946
  0.5064758979251718  0.7444460981532856  0.5041747570114317
  0.5057663319720770  0.5001245250913809  0.7465222822313700
  0.5028851433385203  0.0105422267020451 -0.0097910746304552
 -0.0014740918882013  0.5067482622858792  0.0030182830327685
  0.5038803134870419  0.7446327588684795  0.2573613320491995
  0.2527121395575085  0.0013487742623548  0.7465210933580801
  0.4924452516502597 -0.0146767280352193  0.5062551815334884
  0.7454826428905246 -0.0182053680351645  0.7472134790490850
 -0.0020391389050435  0.7665013308984318  0.2558098169302213
  0.7337967073457722  0.5110882519285967  0.2518041639864891
  0.0105399942268950 -0.0029526349969053  0.4849155222383606
  0.5076112969098310  0.5151628604846715  0.5024202140201782
  0.7420936973101047  0.5194567036519009  0.7488243718614405
  0.7516131070732004  0.7287038998499388  0.4913948803652193
 
  0.00000000E+00  0.00000000E+00  0.00000000E+00
  0.00000000E+00  0.00000000E+00  0.00000000E+00
  0.00000000E+00  0.00000000E+00  0.00000000E+00
  0.00000000E+00  0.00000000E+00  0.00000000E+00
  0.00000000E+00  0.00000000E+00  0.00000000E+00
  0.00000000E+00  0.00000000E+00  0.00000000E+00
  0.00000000E+00  0.00000000E+00  0.00000000E+00
  0.00000000E+00  0.00000000E+00  0.00000000E+00
  0.00000000E+00  0.00000000E+00  0.00000000E+00
  0.00000000E+00  0.00000000E+00  0.00000000E+00
  0.00000000E+00  0.00000000E+00  0.00000000E+00
  0.00000000E+00  0.00000000E+00  0.00000000E+00
  0.00000000E+00  0.00000000E+00  0.00000000E+00
  0.00000000E+00  0.00000000E+00  0.00000000E+00
  0.00000000E+00  0.00000000E+00  0.00000000E+00
  0.00000000E+00  0.00000000E+00  0.00000000E+00
  0.00000000E+00  0.00000000E+00  0.00000000E+00
  0.00000000E+00  0.00000000E+00  0.00000000E+00
  0.00000000E+00  0.00000000E+00  0.00000000E+00
  0.00000000E+00  0.00000000E+00  0.00000000E+00
  0.00000000E+00  0.00000000E+00  0.00000000E+00
  0.00000000E+00  0.00000000E+00  0.00000000E+00
  0.00000000E+00  0.00000000E+00  0.00000000E+00
  0.00000000E+00  0.00000000E+00  0.00000000E+00
  0.00000000E+00  0.00000000E+00  0.00000000E+00
  0.00000000E+00  0.00000000E+00  0.00000000E+00
  0.00000000E+00  0.00000000E+00  0.00000000E+00
  0.00000000E+00  0.00000000E+00  0.00000000E+00
  0.00000000E+00  0.00000000E+00  0.00000000E+00
  0.00000000E+00  0.00000000E+00  0.00000000E+00
  0.00000000E+00  0.00000000E+00  0.00000000E+00
  0.00000000E+00  0.00000000E+00  0.00000000E+00
  0.00000000E+00  0.00000000E+00  0.00000000E+00
  0.00000000E+00  0.00000000E+00  0.00000000E+00
  0.00000000E+00  0.00000000E+00  0.00000000E+00
  0.00000000E+00  0.00000000E+00  0.00000000E+00
  0.00000000E+00  0.00000000E+00  0.00000000E+00
  0.00000000E+00  0.00000000E+00  0.00000000E+00
  0.00000000E+00  0.00000000E+00  0.00000000E+00
  0.00000000E+00  0.00000000E+00  0.00000000E+00
  0.00000000E+00  0.00000000E+00  0.00000000E+00
  0.00000000E+00  0.00000000E+00  0.00000000E+00
  0.00000000E+00  0.00000000E+00  0.00000000E+00
  0.00000000E+00  0.00000000E+00  0.00000000E+00
  0.00000000E+00  0.00000000E+00  0.00000000E+00
  0.00000000E+00  0.00000000E+00  0.00000000E+00
  0.00000000E+00  0.00000000E+00  0.00000000E+00
  0.00000000E+00  0.00000000E+00  0.00000000E+00
  0.00000000E+00  0.00000000E+00  0.00000000E+00
  0.00000000E+00  0.00000000E+00  0.00000000E+00
  0.00000000E+00  0.00000000E+00  0.00000000E+00
  0.00000000E+00  0.00000000E+00  0.00000000E+00
  0.00000000E+00  0.00000000E+00  0.00000000E+00
  0.00000000E+00  0.00000000E+00  0.00000000E+00
  0.00000000E+00  0.00000000E+00  0.00000000E+00
  0.00000000E+00  0.00000000E+00  0.00000000E+00
  0.00000000E+00  0.00000000E+00  0.00000000E+00
  0.00000000E+00  0.00000000E+00  0.00000000E+00
  0.00000000E+00  0.00000000E+00  0.00000000E+00
  0.00000000E+00  0.00000000E+00  0.00000000E+00
  0.00000000E+00  0.00000000E+00  0.00000000E+00
  0.00000000E+00  0.00000000E+00  0.00000000E+00
  0.00000000E+00  0.00000000E+00  0.00000000E+00
  0.00000000E+00  0.00000000E+00  0.00000000E+00
