109-ZrHfNbTaCr                          
   1.00000000000000     
     8.9632213538440446    0.0133251937174827   -0.0132912589967040
     0.0193087246920217    8.9922792542100431   -0.0233065072791340
     0.0189390159313045   -0.0386587424197508    8.9861357800646644
   Hf   Nb   Zr   N    C    Cr   Ta
     7     6     7    13    19     6     6
Direct
  0.9978865958382355  0.9935341282458465  0.9937831588792158
  0.2624654465855082  0.9965890103801223  0.2552829829504439
  0.2437370003935217  0.5000443194851744  0.2453287682764991
  0.4987161878928833  0.5008539566281429  0.9976503844935958
  0.5045428060552170  0.2445527523730363  0.7428051838074863
 -0.0008258793559579  0.5004748179102176  0.5046956385571871
  0.4986357959459319  0.7578814812458499  0.7468192084013959
  0.9939087244105511  0.2354815679208258  0.2611947627753933
  0.7497889767373677  0.7472807204724821  0.0021351509836612
  0.0030106564415038  0.2469430056977238  0.7395962550409041
  0.7562343958424034  0.2558919304574785  0.4998886354737093
  0.0009963862455889  0.7488223276082644  0.7542960797307597
  0.2460672302585710  0.4949490040561354  0.7538763900704455
  0.2474062052450552  0.2418560242693239  0.9955433309420446
  0.5041482037366970  0.2531656378045047  0.2510554887622055
  0.7357262883031672  0.9928696199599339  0.2550198131100511
  0.7538552574703984  0.2510740194113731  0.9938106859755076
  0.2569760646164741  0.7568513420194319 -0.0006328306484200
  0.2518559901204825  0.2492784171085199  0.5020231029413099
  0.2493366897628848  0.7505592275306605  0.5025259121008311
  0.2473577058971159  0.2473011208657748  0.2482891788653128
  0.2458017481768076  0.0006199572086984  0.0062709640015684
  0.0007397495599297  0.2420851881806865 -0.0000283494726396
  0.7535130728831205  0.2519535081284344  0.2505817388797787
  0.7457782887824338  0.9964599496316240 -0.0055403983077219
  0.4967922094175605  0.9974267381469709  0.2795001446529753
  0.9951273935157461  0.4977528062194186  0.2483444459937692
  0.5067519189671668  0.7609280261813367 -0.0036911629774288
  0.9863997927331215  0.0018922286256548  0.7473056155478885
  0.7525774375391260  0.2577819481680972  0.7440607359403438
  0.7562675538447569  0.0015484386815337  0.5082254138669356
  0.5064044429002676  0.2508065706437616  0.5019448088811980
  0.5308994408071931 -0.0006627402663561  0.7373473732663288
 -0.0014568814769520 -0.0032110774398014  0.2518736588223548
  0.5029097316574900  0.2389432903043241 -0.0057622422307232
  0.2510499372728399  0.7487562996438824  0.2502019825802386
  0.2424082065782367  0.5013322990559027  0.9971545887732007
  0.9984895632012013  0.7457142030062487  0.0018992661728060
  0.7449290529819816  0.7449487232649799  0.2513213972915109
  0.7592401778039839  0.5042819690707809  0.0003765402222246
  0.5025813803532291  0.5052084742244088  0.2513106263444144
  0.2494252426077846  0.2435414807319810  0.7489099838631641
  0.2523771840516700 -0.0004129255928408  0.5118172255000778
 -0.0008737030164818  0.2484525607758020  0.5013453969883962
  0.2447516535029252  0.7590912110800236  0.7516778803702491
  0.2531505939247430  0.4997883826637061  0.4983674931495327
  0.9932208977024133  0.7534511052188050  0.5007979396653207
  0.9983296342278924  0.4994669728736133  0.7572539950352291
  0.7510216993095552  0.7526188217054391  0.7513734829397422
  0.7479393476472287  0.5029486037103970  0.4986493392095275
  0.5023567142979498  0.7601519512493179  0.4940038859553297
  0.5031635171732551  0.5010230033845046  0.7452171822770727
  0.5262142220972196  0.0111709171599739  0.9533012319792885
  0.0041175246681852  0.5243014834677827  0.9810886399060580
  0.5024051842304428  0.7343480280424067  0.2663825749507177
  0.2249738067827803  0.0090113965828136  0.7348687376648445
  0.4736895761787666  0.9854925236741250  0.5236392093122573
  0.7419086017492418  0.9663267407953496  0.7721663953257122
  0.0004431889852067  0.7586561398491302  0.2503098210890711
  0.7489355154633283  0.5062848107893306  0.2483916436924080
  0.0034857596024671  0.0020807989416639  0.5052941496117042
  0.4990801657194982  0.5105414335886030  0.4982267044575037
  0.7518575045103036  0.5116377003372113  0.7525563847395783
  0.7489955986407630  0.7492053778394528  0.4966764085786706
 
  0.00000000E+00  0.00000000E+00  0.00000000E+00
  0.00000000E+00  0.00000000E+00  0.00000000E+00
  0.00000000E+00  0.00000000E+00  0.00000000E+00
  0.00000000E+00  0.00000000E+00  0.00000000E+00
  0.00000000E+00  0.00000000E+00  0.00000000E+00
  0.00000000E+00  0.00000000E+00  0.00000000E+00
  0.00000000E+00  0.00000000E+00  0.00000000E+00
  0.00000000E+00  0.00000000E+00  0.00000000E+00
  0.00000000E+00  0.00000000E+00  0.00000000E+00
  0.00000000E+00  0.00000000E+00  0.00000000E+00
  0.00000000E+00  0.00000000E+00  0.00000000E+00
  0.00000000E+00  0.00000000E+00  0.00000000E+00
  0.00000000E+00  0.00000000E+00  0.00000000E+00
  0.00000000E+00  0.00000000E+00  0.00000000E+00
  0.00000000E+00  0.00000000E+00  0.00000000E+00
  0.00000000E+00  0.00000000E+00  0.00000000E+00
  0.00000000E+00  0.00000000E+00  0.00000000E+00
  0.00000000E+00  0.00000000E+00  0.00000000E+00
  0.00000000E+00  0.00000000E+00  0.00000000E+00
  0.00000000E+00  0.00000000E+00  0.00000000E+00
  0.00000000E+00  0.00000000E+00  0.00000000E+00
  0.00000000E+00  0.00000000E+00  0.00000000E+00
  0.00000000E+00  0.00000000E+00  0.00000000E+00
  0.00000000E+00  0.00000000E+00  0.00000000E+00
  0.00000000E+00  0.00000000E+00  0.00000000E+00
  0.00000000E+00  0.00000000E+00  0.00000000E+00
  0.00000000E+00  0.00000000E+00  0.00000000E+00
  0.00000000E+00  0.00000000E+00  0.00000000E+00
  0.00000000E+00  0.00000000E+00  0.00000000E+00
  0.00000000E+00  0.00000000E+00  0.00000000E+00
  0.00000000E+00  0.00000000E+00  0.00000000E+00
  0.00000000E+00  0.00000000E+00  0.00000000E+00
  0.00000000E+00  0.00000000E+00  0.00000000E+00
  0.00000000E+00  0.00000000E+00  0.00000000E+00
  0.00000000E+00  0.00000000E+00  0.00000000E+00
  0.00000000E+00  0.00000000E+00  0.00000000E+00
  0.00000000E+00  0.00000000E+00  0.00000000E+00
  0.00000000E+00  0.00000000E+00  0.00000000E+00
  0.00000000E+00  0.00000000E+00  0.00000000E+00
  0.00000000E+00  0.00000000E+00  0.00000000E+00
  0.00000000E+00  0.00000000E+00  0.00000000E+00
  0.00000000E+00  0.00000000E+00  0.00000000E+00
  0.00000000E+00  0.00000000E+00  0.00000000E+00
  0.00000000E+00  0.00000000E+00  0.00000000E+00
  0.00000000E+00  0.00000000E+00  0.00000000E+00
  0.00000000E+00  0.00000000E+00  0.00000000E+00
  0.00000000E+00  0.00000000E+00  0.00000000E+00
  0.00000000E+00  0.00000000E+00  0.00000000E+00
  0.00000000E+00  0.00000000E+00  0.00000000E+00
  0.00000000E+00  0.00000000E+00  0.00000000E+00
  0.00000000E+00  0.00000000E+00  0.00000000E+00
  0.00000000E+00  0.00000000E+00  0.00000000E+00
  0.00000000E+00  0.00000000E+00  0.00000000E+00
  0.00000000E+00  0.00000000E+00  0.00000000E+00
  0.00000000E+00  0.00000000E+00  0.00000000E+00
  0.00000000E+00  0.00000000E+00  0.00000000E+00
  0.00000000E+00  0.00000000E+00  0.00000000E+00
  0.00000000E+00  0.00000000E+00  0.00000000E+00
  0.00000000E+00  0.00000000E+00  0.00000000E+00
  0.00000000E+00  0.00000000E+00  0.00000000E+00
  0.00000000E+00  0.00000000E+00  0.00000000E+00
  0.00000000E+00  0.00000000E+00  0.00000000E+00
  0.00000000E+00  0.00000000E+00  0.00000000E+00
  0.00000000E+00  0.00000000E+00  0.00000000E+00
