TiZrHfTaMo                              
   1.00000000000000     
     8.9808998695856861    0.0010079504852861   -0.0017907356322672
     0.0009848899034923    9.0636557143212482   -0.0103677574867837
    -0.0017922297009011   -0.0103989510337601    8.9395691479396362
  Ti              Ta              Hf              N               C               Zr              Mo            
     7     6     6    13    19     7     6
Direct
  0.9984614751943724  0.9949217711562336  0.0087248764319295
  0.2396779045881833  0.9919396134351474  0.2516552893905495
  0.2624986087667581  0.5051763185821513  0.2502945884589098
  0.4987816876545420  0.4994337309047892  0.9990739287095926
  0.4938746333935248  0.2617701465748172  0.7496685401442590
  0.0119739602868838  0.4966279847500774  0.4930126325468795
  0.5042498542040597  0.7365250129564297  0.7474120036457917
  0.9991893654070323  0.2443634109462459  0.2608363361143916
  0.7555758683326245  0.7424798353557825  0.0044642856975331
  0.0049011828919299  0.2658804696137388  0.7395306043697365
  0.7538983117400102  0.2707030142441607  0.5053012547333913
  0.9952856892851009  0.7325549537747542  0.7424435153409165
  0.2589945440728132  0.5008519213006370  0.7500328502778140
  0.2466262998308205  0.2513506914135705  0.0018593607360924
  0.5015611181649315  0.2548379479133990  0.2502499961457559
  0.7553277578479077  0.9949527251801106  0.2568527900671001
  0.7513646491256835  0.2535708847628103  0.9933022418704796
  0.2448562982011633  0.7497963586282685  0.0008216190159016
  0.2500379830823447  0.2516491003907945  0.4981370300037106
  0.2484782390287661  0.2489313717019077  0.2498394873327845
  0.2455150931517383  0.0004086480889471  0.0062265139544086
  0.9992829980542216  0.2450800773395183  0.0015719541338446
  0.7520983222932012  0.2472985114140007  0.2521970933555298
  0.7543089001798783  0.0004729118238103  0.0010022675562994
  0.5020765804974119  0.0046917727285945  0.2483964165835871
  0.0057542652488146  0.4891385510891492  0.2582149651497382
  0.5014408745848900  0.7475387091331004  0.9941032822422480
  0.9970384686327499  0.0037624612578792  0.7552000730865701
  0.7487822123238614  0.2477091805852605  0.7469854410319496
  0.7504177774083649  0.0178090941524185  0.4975448066955449
  0.5050729414352846  0.2496855812380863  0.5022806853072853
  0.5028533670409955  0.0010321438425487  0.7505150829636411
  0.0033984505509006  0.0049427950344955  0.2455060295991374
  0.5006955897755684  0.2536604276267049  0.9966072180918425
  0.2437717348575975  0.7503098360311801  0.2478927921579825
  0.2547176094241559  0.5000444065970037  0.0031532033169407
  0.9957255867180856  0.7560411001586951  0.0001563583187951
  0.7547090147901232  0.7436668875822143  0.2499732909123474
  0.7429946282016281  0.5017451676813833  0.0017570863910915
  0.4938258205488275  0.4984944918158009  0.2472938553977863
  0.2511186573267090  0.2544749229229909  0.7499442206014543
  0.2468059586935430  0.0027940271543680  0.4922661578334946
  0.9988308212211190  0.2532623482486801  0.5003972093544906
  0.2489530088769672  0.7451299021606890  0.7527791871936653
  0.2529632601554908  0.4979604424912060  0.4968796401765081
  0.9934416789011481  0.7517017872753837  0.5004072999791018
  0.9995481347227684  0.4994210692823721  0.7440828995935284
  0.7471240760134134  0.7435204676587419  0.7511125538878615
  0.7584651311440113  0.4996577585728102  0.4979742882439476
  0.5060277581393881  0.7445977311799734  0.5080042989862131
  0.4993307801376289  0.4991748611848345  0.7521589250470031
  0.4990103265601056  0.0008854485652643  0.9961869516899342
  0.0002993364127188  0.5017085402018052  0.0091195876566437
  0.4998442194776792  0.7459894516750231  0.2510272993318633
  0.2432529537586691  0.9991199355568035  0.7500885918385947
  0.4942445756145313  0.9947917733952757  0.5031380073842485
  0.7555566012100713  0.9898052345932418  0.7419616213648681
  0.2463232301255381  0.7479753554382110  0.5000523986562225
  0.9978570175842185  0.7714031561801717  0.2598783529976711
  0.7265839708154783  0.5057367344277929  0.2416564959987242
  0.0121839106311761  0.0042270874901370  0.4859148208551099
  0.5016954484124330  0.5075813416835738  0.5015021718360804
  0.7358100839296372  0.5075396124565602  0.7598878190095189
  0.7546340653178615  0.7196916633975282  0.4934882252032189
 
  0.00000000E+00  0.00000000E+00  0.00000000E+00
  0.00000000E+00  0.00000000E+00  0.00000000E+00
  0.00000000E+00  0.00000000E+00  0.00000000E+00
  0.00000000E+00  0.00000000E+00  0.00000000E+00
  0.00000000E+00  0.00000000E+00  0.00000000E+00
  0.00000000E+00  0.00000000E+00  0.00000000E+00
  0.00000000E+00  0.00000000E+00  0.00000000E+00
  0.00000000E+00  0.00000000E+00  0.00000000E+00
  0.00000000E+00  0.00000000E+00  0.00000000E+00
  0.00000000E+00  0.00000000E+00  0.00000000E+00
  0.00000000E+00  0.00000000E+00  0.00000000E+00
  0.00000000E+00  0.00000000E+00  0.00000000E+00
  0.00000000E+00  0.00000000E+00  0.00000000E+00
  0.00000000E+00  0.00000000E+00  0.00000000E+00
  0.00000000E+00  0.00000000E+00  0.00000000E+00
  0.00000000E+00  0.00000000E+00  0.00000000E+00
  0.00000000E+00  0.00000000E+00  0.00000000E+00
  0.00000000E+00  0.00000000E+00  0.00000000E+00
  0.00000000E+00  0.00000000E+00  0.00000000E+00
  0.00000000E+00  0.00000000E+00  0.00000000E+00
  0.00000000E+00  0.00000000E+00  0.00000000E+00
  0.00000000E+00  0.00000000E+00  0.00000000E+00
  0.00000000E+00  0.00000000E+00  0.00000000E+00
  0.00000000E+00  0.00000000E+00  0.00000000E+00
  0.00000000E+00  0.00000000E+00  0.00000000E+00
  0.00000000E+00  0.00000000E+00  0.00000000E+00
  0.00000000E+00  0.00000000E+00  0.00000000E+00
  0.00000000E+00  0.00000000E+00  0.00000000E+00
  0.00000000E+00  0.00000000E+00  0.00000000E+00
  0.00000000E+00  0.00000000E+00  0.00000000E+00
  0.00000000E+00  0.00000000E+00  0.00000000E+00
  0.00000000E+00  0.00000000E+00  0.00000000E+00
  0.00000000E+00  0.00000000E+00  0.00000000E+00
  0.00000000E+00  0.00000000E+00  0.00000000E+00
  0.00000000E+00  0.00000000E+00  0.00000000E+00
  0.00000000E+00  0.00000000E+00  0.00000000E+00
  0.00000000E+00  0.00000000E+00  0.00000000E+00
  0.00000000E+00  0.00000000E+00  0.00000000E+00
  0.00000000E+00  0.00000000E+00  0.00000000E+00
  0.00000000E+00  0.00000000E+00  0.00000000E+00
  0.00000000E+00  0.00000000E+00  0.00000000E+00
  0.00000000E+00  0.00000000E+00  0.00000000E+00
  0.00000000E+00  0.00000000E+00  0.00000000E+00
  0.00000000E+00  0.00000000E+00  0.00000000E+00
  0.00000000E+00  0.00000000E+00  0.00000000E+00
  0.00000000E+00  0.00000000E+00  0.00000000E+00
  0.00000000E+00  0.00000000E+00  0.00000000E+00
  0.00000000E+00  0.00000000E+00  0.00000000E+00
  0.00000000E+00  0.00000000E+00  0.00000000E+00
  0.00000000E+00  0.00000000E+00  0.00000000E+00
  0.00000000E+00  0.00000000E+00  0.00000000E+00
  0.00000000E+00  0.00000000E+00  0.00000000E+00
  0.00000000E+00  0.00000000E+00  0.00000000E+00
  0.00000000E+00  0.00000000E+00  0.00000000E+00
  0.00000000E+00  0.00000000E+00  0.00000000E+00
  0.00000000E+00  0.00000000E+00  0.00000000E+00
  0.00000000E+00  0.00000000E+00  0.00000000E+00
  0.00000000E+00  0.00000000E+00  0.00000000E+00
  0.00000000E+00  0.00000000E+00  0.00000000E+00
  0.00000000E+00  0.00000000E+00  0.00000000E+00
  0.00000000E+00  0.00000000E+00  0.00000000E+00
  0.00000000E+00  0.00000000E+00  0.00000000E+00
  0.00000000E+00  0.00000000E+00  0.00000000E+00
  0.00000000E+00  0.00000000E+00  0.00000000E+00
