124-VNbCrMoW                            
   1.00000000000000     
     8.5837364193272148    0.0050719893342614    0.0053953872461857
     0.0108252812145469    8.6017169996389615    0.0140130913447030
     0.0361363552199335   -0.0009505571055906    8.6464668618540141
   Nb   W    V    N    C    Cr   Mo
     7     6     7    13    19     6     6
Direct
  0.0083199127806211  0.0086461992180276  0.9878318360739087
  0.2604768670948729  0.9971320724770152  0.2451250147679147
  0.2524012232690751  0.4992717752265463  0.2486472762302654
  0.5034067907019022  0.4994931593470966  0.0014645208400381
  0.5069034244937427  0.2425732173869477  0.7513374597009843
  0.9965947269746067  0.5004481524928295  0.5073320733442799
  0.4966514591853439  0.7611156015358489  0.7448627896517337
  0.9848566298016124  0.2321151625232503  0.2554788883026546
  0.7645264182729505  0.7465135186739005  0.0005454413609272
  0.0133361757826052  0.2358321614821222  0.7523626300525095
  0.7601694175293261  0.2396259264793841  0.4837259638019589
  0.0040337964553316  0.7383938660400489  0.7543103294388871
  0.2543919285787553  0.5026598996884104  0.7506682199766530
  0.2642694269678643  0.2497739901503948  0.9844084364908099
  0.5192409247310437  0.2300254640597075  0.2623460727592004
  0.7355374199669882  0.0119420206665666  0.2811783228354372
  0.7346121888229362  0.2442634554903762  0.9820837896001109
  0.2387986494374132  0.7425530334413040  0.0031362832781028
  0.2500673377267262  0.2537504603136966  0.5136633877073535
  0.2529371503036586  0.7431648029682378  0.4947039882750275
  0.2468922364190576  0.2461698177938132  0.2487156829551083
  0.2654876474454255  0.9997560777114316  0.9962494308546894
  0.0056606262587167  0.2575960779358866  0.0084026248817608
  0.7469209856371180  0.2483303370458714  0.2321301090757473
  0.7483767719083332  0.0004638905765404  0.9997254752981064
  0.5071528825187812  0.9939519682292826  0.2445164474734227
  0.9978732324387423  0.4904961089094968  0.2516283205839471
  0.5005072584986365  0.7574077828843073  0.9982136405147060
  0.9904513124612464  0.9890308198228297  0.7394789662540404
  0.7605134958652187  0.2315703714093260  0.7417956051077184
  0.7402681060916905  0.9990697606378731  0.5065144850379752
  0.5021052799430876  0.2482909512928870  0.4934777878731964
  0.4899880996610619  0.0028486505375014  0.7440161634500342
  0.9918732653525169  0.9976935906947517  0.2443262853673431
  0.5009028699792140  0.2457815937513956  0.0077140523145331
  0.2598413594176350  0.7480597190483351  0.2474253124945420
  0.2412060217556089  0.4975995109035978  0.9970527194530447
  0.0070149502951509  0.7474814443454321  0.0058699865906746
  0.7395982854413674  0.7642184064615165  0.2446010741647697
  0.7628616890530395  0.4905856901121410  0.0084851896591474
  0.4982910848595807  0.4953584635980874  0.2494304858839982
  0.2568397219951777  0.2443737863274222  0.7482219776258603
  0.2564228234813655  0.0006601672042876  0.5100107271378889
  0.0088975908530173  0.2473306647134095  0.5017521088100665
  0.2471658107122749  0.7602104384102262  0.7503314299624648
  0.2512810942417047  0.4981699256120891  0.5015086047736332
  0.0059659594327002  0.7508395038241886  0.5044692614526411
  0.9993456285814872  0.4876166223294263  0.7557308181214353
  0.7526935411351445  0.7666698784037891  0.7484707364332550
  0.7468754219434217  0.4892867447526328  0.5053246859029841
  0.4952044271300622  0.7686759645494590  0.4930018616648582
  0.4995949143364555  0.5026988438531248  0.7475201037444563
  0.5154960793089387  0.0167408308329797  0.9809531892230936
  0.9928009881816280  0.5195955357683388  0.9739508615938419
  0.5007883614875013  0.7364686668771299  0.2749296980294673
  0.2211216006970105  0.0103431781580312  0.7739226276545068
  0.4725426631205991  0.0143023659093160  0.4844127634718376
  0.7173480129851697  0.9994074384277809  0.7783904908810939
  0.0038541087925523  0.7621420583152201  0.2580855399187953
  0.7352556302517215  0.5197209450798468  0.2533801377974925
  0.0216061442437478  0.9974728235259178  0.4914474124075028
  0.5000765005639565  0.5173351692204093  0.4930175874889926
  0.7460573547004685  0.5164133289371691  0.7606543052797434
  0.7474466676452565  0.7424698966037937  0.4955306368468229
 
  0.00000000E+00  0.00000000E+00  0.00000000E+00
  0.00000000E+00  0.00000000E+00  0.00000000E+00
  0.00000000E+00  0.00000000E+00  0.00000000E+00
  0.00000000E+00  0.00000000E+00  0.00000000E+00
  0.00000000E+00  0.00000000E+00  0.00000000E+00
  0.00000000E+00  0.00000000E+00  0.00000000E+00
  0.00000000E+00  0.00000000E+00  0.00000000E+00
  0.00000000E+00  0.00000000E+00  0.00000000E+00
  0.00000000E+00  0.00000000E+00  0.00000000E+00
  0.00000000E+00  0.00000000E+00  0.00000000E+00
  0.00000000E+00  0.00000000E+00  0.00000000E+00
  0.00000000E+00  0.00000000E+00  0.00000000E+00
  0.00000000E+00  0.00000000E+00  0.00000000E+00
  0.00000000E+00  0.00000000E+00  0.00000000E+00
  0.00000000E+00  0.00000000E+00  0.00000000E+00
  0.00000000E+00  0.00000000E+00  0.00000000E+00
  0.00000000E+00  0.00000000E+00  0.00000000E+00
  0.00000000E+00  0.00000000E+00  0.00000000E+00
  0.00000000E+00  0.00000000E+00  0.00000000E+00
  0.00000000E+00  0.00000000E+00  0.00000000E+00
  0.00000000E+00  0.00000000E+00  0.00000000E+00
  0.00000000E+00  0.00000000E+00  0.00000000E+00
  0.00000000E+00  0.00000000E+00  0.00000000E+00
  0.00000000E+00  0.00000000E+00  0.00000000E+00
  0.00000000E+00  0.00000000E+00  0.00000000E+00
  0.00000000E+00  0.00000000E+00  0.00000000E+00
  0.00000000E+00  0.00000000E+00  0.00000000E+00
  0.00000000E+00  0.00000000E+00  0.00000000E+00
  0.00000000E+00  0.00000000E+00  0.00000000E+00
  0.00000000E+00  0.00000000E+00  0.00000000E+00
  0.00000000E+00  0.00000000E+00  0.00000000E+00
  0.00000000E+00  0.00000000E+00  0.00000000E+00
  0.00000000E+00  0.00000000E+00  0.00000000E+00
  0.00000000E+00  0.00000000E+00  0.00000000E+00
  0.00000000E+00  0.00000000E+00  0.00000000E+00
  0.00000000E+00  0.00000000E+00  0.00000000E+00
  0.00000000E+00  0.00000000E+00  0.00000000E+00
  0.00000000E+00  0.00000000E+00  0.00000000E+00
  0.00000000E+00  0.00000000E+00  0.00000000E+00
  0.00000000E+00  0.00000000E+00  0.00000000E+00
  0.00000000E+00  0.00000000E+00  0.00000000E+00
  0.00000000E+00  0.00000000E+00  0.00000000E+00
  0.00000000E+00  0.00000000E+00  0.00000000E+00
  0.00000000E+00  0.00000000E+00  0.00000000E+00
  0.00000000E+00  0.00000000E+00  0.00000000E+00
  0.00000000E+00  0.00000000E+00  0.00000000E+00
  0.00000000E+00  0.00000000E+00  0.00000000E+00
  0.00000000E+00  0.00000000E+00  0.00000000E+00
  0.00000000E+00  0.00000000E+00  0.00000000E+00
  0.00000000E+00  0.00000000E+00  0.00000000E+00
  0.00000000E+00  0.00000000E+00  0.00000000E+00
  0.00000000E+00  0.00000000E+00  0.00000000E+00
  0.00000000E+00  0.00000000E+00  0.00000000E+00
  0.00000000E+00  0.00000000E+00  0.00000000E+00
  0.00000000E+00  0.00000000E+00  0.00000000E+00
  0.00000000E+00  0.00000000E+00  0.00000000E+00
  0.00000000E+00  0.00000000E+00  0.00000000E+00
  0.00000000E+00  0.00000000E+00  0.00000000E+00
  0.00000000E+00  0.00000000E+00  0.00000000E+00
  0.00000000E+00  0.00000000E+00  0.00000000E+00
  0.00000000E+00  0.00000000E+00  0.00000000E+00
  0.00000000E+00  0.00000000E+00  0.00000000E+00
  0.00000000E+00  0.00000000E+00  0.00000000E+00
  0.00000000E+00  0.00000000E+00  0.00000000E+00
