V                                       
   1.00000000000000     
     3.0088700389555583   -0.0000000000000000   -0.0000000000000000
    -0.0000000000000000    3.0088700389555583   -0.0000000000000000
    -0.0000000000000000   -0.0000000000000000    3.0088700389555583
  V             
     2
Direct
  0.0000000000000000  0.0000000000000000  0.0000000000000000
  0.5000000000000000  0.5000000000000000  0.5000000000000000
 
  0.00000000E+00  0.00000000E+00  0.00000000E+00
  0.00000000E+00  0.00000000E+00  0.00000000E+00
