20-TiZrTaMoW                            
   1.00000000000000     
     8.9098328013528239   -0.0113930801150557    0.0210285445381433
    -0.0113988561794303    8.9332774709753195    0.0118364568010734
     0.0209168727254566    0.0116973319460413    8.8702095068801601
  Ti              Mo              Ta              N               C               Zr              W             
     7     6     6    13    19     7     6
Direct
  0.9977754219446865  0.9987650237196750  0.0089027307505095
  0.2379539724698894  0.9950091879382787  0.2491073951675526
  0.2604293360593674  0.5008931666704293  0.2550755471663373
  0.4974612987228153  0.4981094983984259  0.0003589535835710
  0.4947050287741907  0.2548316350067080  0.7547501764026177
  0.9970869169275564  0.4978905197477430  0.4949039365364299
  0.5029426380289019  0.7469040835769056  0.7505604719630846
  0.9961965207988460  0.2384462628247710  0.2644924608366555
  0.7688581743580829  0.7381408433434196  0.9948038030593375
  0.0199380285343238  0.2772366146476000  0.7553737645399395
  0.7758804591868160  0.2494917271527388  0.4776224563296007
  0.9900688435005893  0.7242152971610641  0.7479536301525903
  0.2627479880785390  0.4971189276897850  0.7486767664564358
  0.2552261489003665  0.2584606704864819  0.9938100965020009
  0.4999995407757986  0.2572029921751918  0.2450918424157641
  0.7631506046043636  0.9969110457946671  0.2532581639823097
  0.7422429350547589  0.2602898261059681  0.9906763812212827
  0.2380635832173742  0.7393232897432773  0.9993007942867349
  0.2443487886485688  0.2532832666454604  0.5059476648692406
  0.2518610078036669  0.2480654088622318  0.2503926463129532
  0.2454371501385843  0.0018876602054632  0.0072264196475076
  0.9993804360200881  0.2400128019929395  0.0076782451631863
  0.7501904440062045  0.2498685727262714  0.2389607448562175
  0.7577468765676063  0.0075997515566853  0.0027343505383582
  0.5063659813829865  0.0079129577278187  0.2482127930301164
  0.9970226468482601  0.4977837203033700  0.2609506856316863
  0.4919814511492799  0.7474277977674860  0.9906693658196463
  0.9997044466215268  0.0067166325695171  0.7503236650092745
  0.7465359760617741  0.2542824666517518  0.7528683311656338
  0.7565726853736617  0.9917623848386885  0.4939087367829054
  0.4975163784554431  0.2548514324392726  0.4979258460577712
  0.5022779991679329  0.0014394886788264  0.7493468842340477
  0.0048521612323437  0.9954025828575718  0.2446803587810293
  0.4997968919077777  0.2584829396386719  0.9966845673832246
  0.2439509358999812  0.7505023519628357  0.2448366533564883
  0.2538165780427582  0.4991292154267628  0.0055824918403045
  0.0003560694868924  0.7547641163043343  0.9994626904545922
  0.7541053406096209  0.7470491764041745  0.2496766717769665
  0.7421404501203820  0.5021966911017175  0.0038704081423527
  0.4942378747900933  0.4974153937720107  0.2498701872380462
  0.2567480603566883  0.2516037772254680  0.7489573230659834
  0.2448049646942044  0.0061626652711205  0.4909855667618969
  0.0017464746956284  0.2540329174809141  0.5148337552072009
  0.2483073159580733  0.7442876019907972  0.7558552514363642
  0.2513148161025572  0.4945124059537261  0.4968698457474651
  0.9911885520923891  0.7551709228466640  0.5015485241244932
  0.9961757732159230  0.4997380131989984  0.7462409507430817
  0.7426207548533147  0.7480390007057967  0.7476293129833325
  0.7508899775113148  0.4881735006739867  0.5073693082073385
  0.5035572882601862  0.7464457185321143  0.5064070568483835
  0.4995122494099986  0.5011595530970793  0.7503686123601297
  0.5020919269775610  0.0031481309475986  0.9982757095171000
  0.9977381998364160  0.4975278514638463  0.0092835161455825
  0.5003485863691476  0.7470531726133666  0.2459329991379656
  0.2405202558251603  0.9968537021864163  0.7519327532148669
  0.4977297441065388  0.9992993696982455  0.4997500755790175
  0.7602257248953268  0.9981250274777802  0.7442929395623454
  0.2453379805296323  0.7464568682872867  0.5021472958434301
  0.9996715234385174  0.7536478663562600  0.2534068743784220
  0.7332951615294847  0.5003271558764474  0.2564196299497795
  0.0054936173039510  0.0134134750255223  0.4827974451561668
  0.5051667716030314  0.5123163001361417  0.4999685016376569
  0.7330613497714900  0.5151201638446838  0.7538588046051042
  0.7515275923908207  0.7303080884928038  0.4983388403426450
 
  0.00000000E+00  0.00000000E+00  0.00000000E+00
  0.00000000E+00  0.00000000E+00  0.00000000E+00
  0.00000000E+00  0.00000000E+00  0.00000000E+00
  0.00000000E+00  0.00000000E+00  0.00000000E+00
  0.00000000E+00  0.00000000E+00  0.00000000E+00
  0.00000000E+00  0.00000000E+00  0.00000000E+00
  0.00000000E+00  0.00000000E+00  0.00000000E+00
  0.00000000E+00  0.00000000E+00  0.00000000E+00
  0.00000000E+00  0.00000000E+00  0.00000000E+00
  0.00000000E+00  0.00000000E+00  0.00000000E+00
  0.00000000E+00  0.00000000E+00  0.00000000E+00
  0.00000000E+00  0.00000000E+00  0.00000000E+00
  0.00000000E+00  0.00000000E+00  0.00000000E+00
  0.00000000E+00  0.00000000E+00  0.00000000E+00
  0.00000000E+00  0.00000000E+00  0.00000000E+00
  0.00000000E+00  0.00000000E+00  0.00000000E+00
  0.00000000E+00  0.00000000E+00  0.00000000E+00
  0.00000000E+00  0.00000000E+00  0.00000000E+00
  0.00000000E+00  0.00000000E+00  0.00000000E+00
  0.00000000E+00  0.00000000E+00  0.00000000E+00
  0.00000000E+00  0.00000000E+00  0.00000000E+00
  0.00000000E+00  0.00000000E+00  0.00000000E+00
  0.00000000E+00  0.00000000E+00  0.00000000E+00
  0.00000000E+00  0.00000000E+00  0.00000000E+00
  0.00000000E+00  0.00000000E+00  0.00000000E+00
  0.00000000E+00  0.00000000E+00  0.00000000E+00
  0.00000000E+00  0.00000000E+00  0.00000000E+00
  0.00000000E+00  0.00000000E+00  0.00000000E+00
  0.00000000E+00  0.00000000E+00  0.00000000E+00
  0.00000000E+00  0.00000000E+00  0.00000000E+00
  0.00000000E+00  0.00000000E+00  0.00000000E+00
  0.00000000E+00  0.00000000E+00  0.00000000E+00
  0.00000000E+00  0.00000000E+00  0.00000000E+00
  0.00000000E+00  0.00000000E+00  0.00000000E+00
  0.00000000E+00  0.00000000E+00  0.00000000E+00
  0.00000000E+00  0.00000000E+00  0.00000000E+00
  0.00000000E+00  0.00000000E+00  0.00000000E+00
  0.00000000E+00  0.00000000E+00  0.00000000E+00
  0.00000000E+00  0.00000000E+00  0.00000000E+00
  0.00000000E+00  0.00000000E+00  0.00000000E+00
  0.00000000E+00  0.00000000E+00  0.00000000E+00
  0.00000000E+00  0.00000000E+00  0.00000000E+00
  0.00000000E+00  0.00000000E+00  0.00000000E+00
  0.00000000E+00  0.00000000E+00  0.00000000E+00
  0.00000000E+00  0.00000000E+00  0.00000000E+00
  0.00000000E+00  0.00000000E+00  0.00000000E+00
  0.00000000E+00  0.00000000E+00  0.00000000E+00
  0.00000000E+00  0.00000000E+00  0.00000000E+00
  0.00000000E+00  0.00000000E+00  0.00000000E+00
  0.00000000E+00  0.00000000E+00  0.00000000E+00
  0.00000000E+00  0.00000000E+00  0.00000000E+00
  0.00000000E+00  0.00000000E+00  0.00000000E+00
  0.00000000E+00  0.00000000E+00  0.00000000E+00
  0.00000000E+00  0.00000000E+00  0.00000000E+00
  0.00000000E+00  0.00000000E+00  0.00000000E+00
  0.00000000E+00  0.00000000E+00  0.00000000E+00
  0.00000000E+00  0.00000000E+00  0.00000000E+00
  0.00000000E+00  0.00000000E+00  0.00000000E+00
  0.00000000E+00  0.00000000E+00  0.00000000E+00
  0.00000000E+00  0.00000000E+00  0.00000000E+00
  0.00000000E+00  0.00000000E+00  0.00000000E+00
  0.00000000E+00  0.00000000E+00  0.00000000E+00
  0.00000000E+00  0.00000000E+00  0.00000000E+00
  0.00000000E+00  0.00000000E+00  0.00000000E+00
