60-TiZrVCrW                             
   1.00000000000000     
     8.6734404136192911    0.0116091590263314   -0.0069742147007612
     0.0174427073878534    8.7345008020426462   -0.0235310836691232
     0.0241995421840317   -0.0383863466762923    8.6750100895855660
   Zr   V    Ti   N    C    Cr   W 
     7     6     7    13    19     6     6
Direct
  0.9995556592300558  0.0028389618547518  0.9917795900270311
  0.2679113829139221  0.0009084520139420  0.2470652355561136
  0.2402204416041890  0.4934926168909715  0.2466805946395289
  0.4984942927711163  0.4996325362086038  0.0003080119054824
  0.5143575573964982  0.2453294372179713  0.7387955063253059
  0.9963913839096527  0.5004174843780989  0.5027291893452850
  0.4908032792468979  0.7585570363122889  0.7567470485598677
  0.9892051828802326  0.2250851411119586  0.2619713187965691
  0.7693096614560666  0.7375176012749587  0.0057392157076008
  0.0014653533985014  0.2523875426907501  0.7401367224629898
  0.7653104252213400  0.2287446899631464  0.4818589092224747
  0.0017499559279836  0.7367639695114753  0.7624248115754045
  0.2417690725322438  0.4827465865792541  0.7523923558059376
  0.2487020473031167  0.2452137021148448  0.9905693182376744
  0.5115082506381298  0.2544860416079152  0.2541799454640173
  0.7384667285060660  0.9954938321220168  0.2496281429815917
  0.7580399998066506  0.2568658222998266  0.0041397627646296
  0.2419305896449663  0.7470111053152531  0.9961367146352850
  0.2487275650688608  0.2483763127753625  0.5034246763224606
  0.2459361962472678  0.7517368483540451  0.5077846186009651
  0.2494826847484466  0.2466484560788131  0.2496637529073637
  0.2601100450376437  0.0020225675935331  0.9880625796509316
  0.0024883167694693  0.2582612489091872  0.0032252439682209
  0.7541252986932352  0.2496621601130826  0.2492946726742587
  0.7444197148619434  0.9986042375429010  0.0026347565580633
  0.5129687724644711  0.0044636912152921  0.2543552474544533
  0.9863637412214805  0.4971734643013897  0.2414616281160923
  0.4983941679978131  0.7632580050674900  0.0108624748826150
  0.9812710490399285  0.0100063760611802  0.7392366092616020
  0.7652018262704186  0.2583730153613047  0.7502376260042428
  0.7475772578373996  0.0078198329967880  0.4996228669381878
  0.5050533189163638  0.2514857707315942  0.4882151623717591
  0.5307359759649449  0.0003127878653128  0.7469786455587878
  0.9961817068079243  0.0014673304951405  0.2530733454391042
  0.5051597374155214  0.2382979495183636  0.0019119496080405
  0.2511405202565397  0.7481099904278043  0.2508699006195889
  0.2390477896454028  0.4981634110120120  0.9888431105581196
  0.0004185965078285  0.7393399265166812  0.0016424594878370
  0.7428269045279036  0.7518669850156934  0.2439778339039935
  0.7630722670420217  0.5027694765170145  0.0036022149254964
  0.4975742087303375  0.4975649239872166  0.2537582786847011
  0.2441947757746820  0.2484385934801545  0.7475176924605850
  0.2557695889178807  0.0015797173543702  0.5157916038538281
  0.0001191204754381  0.2466827374705242  0.5005657315411601
  0.2330328372784496  0.7539703471198270  0.7529635462782314
  0.2543030266443707  0.4993392413316960  0.5084560066343418
  0.9954734617812049  0.7586687498974889  0.5067353870551323
  0.0033080933154582  0.4991852478638237  0.7570565665473560
  0.7565383307602829  0.7524134636173668  0.7557589533468106
  0.7427330306014571  0.4957528141483176  0.5040789586825583
  0.4936458027946199  0.7615651494142289  0.4906397124364339
  0.4982134630613068  0.5017842003541813  0.7428879585994957
  0.5220828923926287  0.0118700802909157  0.9756429583147221
  0.0006839021708918  0.5053025745400475  0.9799472173034773
  0.4928732200095651  0.7305245785223122  0.2575563849254821
  0.2142516157655380  0.0199058267333186  0.7419835922597702
  0.4840605248435143  0.9841367323539935  0.5181410369025486
  0.7475906320368532  0.9641027441887982  0.7827364880707720
  0.0054578408624554  0.7679448679340664  0.2491351094073938
  0.7401092620415343  0.5117852771730207  0.2562033814051996
  0.0111893993333701  0.0047807834047920  0.5021438011048234
  0.5006967928615605  0.5183295341373759  0.4950193436223289
  0.7541599726195978  0.5154631871489618  0.7522712468193731
  0.7460438631965106  0.7571959745951852  0.4907454099185299
 
  0.00000000E+00  0.00000000E+00  0.00000000E+00
  0.00000000E+00  0.00000000E+00  0.00000000E+00
  0.00000000E+00  0.00000000E+00  0.00000000E+00
  0.00000000E+00  0.00000000E+00  0.00000000E+00
  0.00000000E+00  0.00000000E+00  0.00000000E+00
  0.00000000E+00  0.00000000E+00  0.00000000E+00
  0.00000000E+00  0.00000000E+00  0.00000000E+00
  0.00000000E+00  0.00000000E+00  0.00000000E+00
  0.00000000E+00  0.00000000E+00  0.00000000E+00
  0.00000000E+00  0.00000000E+00  0.00000000E+00
  0.00000000E+00  0.00000000E+00  0.00000000E+00
  0.00000000E+00  0.00000000E+00  0.00000000E+00
  0.00000000E+00  0.00000000E+00  0.00000000E+00
  0.00000000E+00  0.00000000E+00  0.00000000E+00
  0.00000000E+00  0.00000000E+00  0.00000000E+00
  0.00000000E+00  0.00000000E+00  0.00000000E+00
  0.00000000E+00  0.00000000E+00  0.00000000E+00
  0.00000000E+00  0.00000000E+00  0.00000000E+00
  0.00000000E+00  0.00000000E+00  0.00000000E+00
  0.00000000E+00  0.00000000E+00  0.00000000E+00
  0.00000000E+00  0.00000000E+00  0.00000000E+00
  0.00000000E+00  0.00000000E+00  0.00000000E+00
  0.00000000E+00  0.00000000E+00  0.00000000E+00
  0.00000000E+00  0.00000000E+00  0.00000000E+00
  0.00000000E+00  0.00000000E+00  0.00000000E+00
  0.00000000E+00  0.00000000E+00  0.00000000E+00
  0.00000000E+00  0.00000000E+00  0.00000000E+00
  0.00000000E+00  0.00000000E+00  0.00000000E+00
  0.00000000E+00  0.00000000E+00  0.00000000E+00
  0.00000000E+00  0.00000000E+00  0.00000000E+00
  0.00000000E+00  0.00000000E+00  0.00000000E+00
  0.00000000E+00  0.00000000E+00  0.00000000E+00
  0.00000000E+00  0.00000000E+00  0.00000000E+00
  0.00000000E+00  0.00000000E+00  0.00000000E+00
  0.00000000E+00  0.00000000E+00  0.00000000E+00
  0.00000000E+00  0.00000000E+00  0.00000000E+00
  0.00000000E+00  0.00000000E+00  0.00000000E+00
  0.00000000E+00  0.00000000E+00  0.00000000E+00
  0.00000000E+00  0.00000000E+00  0.00000000E+00
  0.00000000E+00  0.00000000E+00  0.00000000E+00
  0.00000000E+00  0.00000000E+00  0.00000000E+00
  0.00000000E+00  0.00000000E+00  0.00000000E+00
  0.00000000E+00  0.00000000E+00  0.00000000E+00
  0.00000000E+00  0.00000000E+00  0.00000000E+00
  0.00000000E+00  0.00000000E+00  0.00000000E+00
  0.00000000E+00  0.00000000E+00  0.00000000E+00
  0.00000000E+00  0.00000000E+00  0.00000000E+00
  0.00000000E+00  0.00000000E+00  0.00000000E+00
  0.00000000E+00  0.00000000E+00  0.00000000E+00
  0.00000000E+00  0.00000000E+00  0.00000000E+00
  0.00000000E+00  0.00000000E+00  0.00000000E+00
  0.00000000E+00  0.00000000E+00  0.00000000E+00
  0.00000000E+00  0.00000000E+00  0.00000000E+00
  0.00000000E+00  0.00000000E+00  0.00000000E+00
  0.00000000E+00  0.00000000E+00  0.00000000E+00
  0.00000000E+00  0.00000000E+00  0.00000000E+00
  0.00000000E+00  0.00000000E+00  0.00000000E+00
  0.00000000E+00  0.00000000E+00  0.00000000E+00
  0.00000000E+00  0.00000000E+00  0.00000000E+00
  0.00000000E+00  0.00000000E+00  0.00000000E+00
  0.00000000E+00  0.00000000E+00  0.00000000E+00
  0.00000000E+00  0.00000000E+00  0.00000000E+00
  0.00000000E+00  0.00000000E+00  0.00000000E+00
  0.00000000E+00  0.00000000E+00  0.00000000E+00
