60-TiZrVCrW                             
   1.00000000000000     
     8.6906556735160247    0.0190295454084283   -0.0073124028445144
     0.0249451367610163    8.7377708691907152   -0.0150305626191173
     0.0238661328586135   -0.0299393812847016    8.6659397167834484
   Zr   V    Ti   N    C    Cr   W 
     7     6     7    13    19     6     6
Direct
  0.9965300333725953  0.0037569730179855  0.9915692184873582
  0.2672594407038405  0.0012388783540771  0.2466673144472981
  0.2419381334793291  0.4934784232074770  0.2463552726285387
  0.4981475316150344  0.4989859694760135 -0.0006051111695824
  0.5122253355983196  0.2454362601215341  0.7387173580195949
 -0.0012789686036646  0.5003611748568578  0.5025748162262161
  0.4910978371986051  0.7586129033445773  0.7555584051405695
  0.9852363541004430  0.2275557613475533  0.2663802337861536
  0.7681698111192573  0.7417431679372311  0.0067996071563215
  0.0031704483558046  0.2473055329782604  0.7349635614953390
  0.7616976906377234  0.2474775179956437  0.4870926911264117
  0.0020339096245963  0.7370816828352472  0.7614668736466363
  0.2394783175934740  0.4839578575558279  0.7529116324663077
  0.2452591843127503  0.2466989707411368  0.9915370645599064
  0.5141038731353117  0.2526675149714128  0.2530776219898903
  0.7405682316034043  0.9954932387139536  0.2643801954730418
  0.7558967502332221  0.2529930593918818  0.9987304449872765
  0.2409828329488257  0.7477345395875316  0.9963448821835651
  0.2521000736161248  0.2481666914747423  0.5019629796066509
  0.2477734307589096  0.7518303184568355  0.5060380786437235
  0.2484105688068593  0.2464369355852469  0.2495925999139064
  0.2559947675865384  0.0029490714579722  0.9875809690552768
  0.0003663679207024  0.2587619801217143  0.0025308542193082
  0.7535235090473063  0.2489088936776386  0.2494887383531595
  0.7433909650151862  0.9987214814632078  0.0012031580738773
  0.5140422159029909  0.0024673471144614  0.2520805889727588
  0.9873843300104903  0.4965179664167511  0.2420467260683542
  0.4975687914716161  0.7629112917888784  0.0109276676465954
  0.9841932854740849  0.0067571660247045  0.7396899812865839
  0.7647725217615581  0.2553624710891957  0.7501427104738612
  0.7536718547199552  0.0073380696540348  0.5056446725456147
  0.5048614113897001  0.2506072489188962  0.4875913410270011
  0.5175018382693217  0.0007630606297020  0.7444253374821757
  0.9952396581951720  0.0020794945458330  0.2543278864595176
  0.5040975767321111  0.2375053901381642  0.0017221429897268
  0.2501867973379368  0.7480782098357996  0.2497815201693066
  0.2384594776722662  0.4985880549433394  0.9888031823680709
  0.9998498480055412  0.7414815666593154  0.0018869423732828
  0.7438347751142526  0.7515310885660269  0.2452683134237530
  0.7621455515223751  0.5031804171698481  0.0050935890417048
  0.4986474120026139  0.4967088783563687  0.2522500841715244
  0.2441505625913484  0.2496069358754631  0.7470567384893324
  0.2585208480457761  0.0009019684401807  0.5162011900208008
  0.0012191403579348  0.2459388039076910  0.5012288905180462
  0.2334295309034688  0.7534285438232993  0.7519860084877300
  0.2562913581989641  0.5001524023409321  0.5087408108519009
 -0.0024610725818259  0.7586010899265930  0.5070068700967862
  0.0037895242999631  0.4962315478744509  0.7582602621704175
  0.7563950079947019  0.7540022471722773  0.7553880105069927
  0.7449086654155793  0.4928483271736510  0.5062197079643200
  0.4968184894900206  0.7611182879518594  0.4889027380106945
  0.5015282150693455  0.5020116479458473  0.7415553306005844
  0.5254431610606224  0.0114079770415423  0.9758452827378068
  0.9994654154416667  0.5087374734811024  0.9829568712915135
  0.4924430791207982  0.7305081505750081  0.2531069825070499
  0.2164355077621686  0.0212547469514877  0.7451322963946766
  0.4840744964357188  0.9854997200823657  0.5060662804728662
  0.7390974398405870  0.9686158299935017  0.7764306700365267
  0.0049181604171123  0.7677164863906368  0.2499070128818162
  0.7394813765106248  0.5088922584387404  0.2548500710750891
  0.0154273265876552  0.0039446924781365  0.5039301827711512
  0.5027570041056079  0.5162561596345120  0.4932581137327302
  0.7581583909557812  0.5158426083214648  0.7585148440525242
  0.7471749726138757  0.7462493246563803  0.4928528233120844
 
  0.00000000E+00  0.00000000E+00  0.00000000E+00
  0.00000000E+00  0.00000000E+00  0.00000000E+00
  0.00000000E+00  0.00000000E+00  0.00000000E+00
  0.00000000E+00  0.00000000E+00  0.00000000E+00
  0.00000000E+00  0.00000000E+00  0.00000000E+00
  0.00000000E+00  0.00000000E+00  0.00000000E+00
  0.00000000E+00  0.00000000E+00  0.00000000E+00
  0.00000000E+00  0.00000000E+00  0.00000000E+00
  0.00000000E+00  0.00000000E+00  0.00000000E+00
  0.00000000E+00  0.00000000E+00  0.00000000E+00
  0.00000000E+00  0.00000000E+00  0.00000000E+00
  0.00000000E+00  0.00000000E+00  0.00000000E+00
  0.00000000E+00  0.00000000E+00  0.00000000E+00
  0.00000000E+00  0.00000000E+00  0.00000000E+00
  0.00000000E+00  0.00000000E+00  0.00000000E+00
  0.00000000E+00  0.00000000E+00  0.00000000E+00
  0.00000000E+00  0.00000000E+00  0.00000000E+00
  0.00000000E+00  0.00000000E+00  0.00000000E+00
  0.00000000E+00  0.00000000E+00  0.00000000E+00
  0.00000000E+00  0.00000000E+00  0.00000000E+00
  0.00000000E+00  0.00000000E+00  0.00000000E+00
  0.00000000E+00  0.00000000E+00  0.00000000E+00
  0.00000000E+00  0.00000000E+00  0.00000000E+00
  0.00000000E+00  0.00000000E+00  0.00000000E+00
  0.00000000E+00  0.00000000E+00  0.00000000E+00
  0.00000000E+00  0.00000000E+00  0.00000000E+00
  0.00000000E+00  0.00000000E+00  0.00000000E+00
  0.00000000E+00  0.00000000E+00  0.00000000E+00
  0.00000000E+00  0.00000000E+00  0.00000000E+00
  0.00000000E+00  0.00000000E+00  0.00000000E+00
  0.00000000E+00  0.00000000E+00  0.00000000E+00
  0.00000000E+00  0.00000000E+00  0.00000000E+00
  0.00000000E+00  0.00000000E+00  0.00000000E+00
  0.00000000E+00  0.00000000E+00  0.00000000E+00
  0.00000000E+00  0.00000000E+00  0.00000000E+00
  0.00000000E+00  0.00000000E+00  0.00000000E+00
  0.00000000E+00  0.00000000E+00  0.00000000E+00
  0.00000000E+00  0.00000000E+00  0.00000000E+00
  0.00000000E+00  0.00000000E+00  0.00000000E+00
  0.00000000E+00  0.00000000E+00  0.00000000E+00
  0.00000000E+00  0.00000000E+00  0.00000000E+00
  0.00000000E+00  0.00000000E+00  0.00000000E+00
  0.00000000E+00  0.00000000E+00  0.00000000E+00
  0.00000000E+00  0.00000000E+00  0.00000000E+00
  0.00000000E+00  0.00000000E+00  0.00000000E+00
  0.00000000E+00  0.00000000E+00  0.00000000E+00
  0.00000000E+00  0.00000000E+00  0.00000000E+00
  0.00000000E+00  0.00000000E+00  0.00000000E+00
  0.00000000E+00  0.00000000E+00  0.00000000E+00
  0.00000000E+00  0.00000000E+00  0.00000000E+00
  0.00000000E+00  0.00000000E+00  0.00000000E+00
  0.00000000E+00  0.00000000E+00  0.00000000E+00
  0.00000000E+00  0.00000000E+00  0.00000000E+00
  0.00000000E+00  0.00000000E+00  0.00000000E+00
  0.00000000E+00  0.00000000E+00  0.00000000E+00
  0.00000000E+00  0.00000000E+00  0.00000000E+00
  0.00000000E+00  0.00000000E+00  0.00000000E+00
  0.00000000E+00  0.00000000E+00  0.00000000E+00
  0.00000000E+00  0.00000000E+00  0.00000000E+00
  0.00000000E+00  0.00000000E+00  0.00000000E+00
  0.00000000E+00  0.00000000E+00  0.00000000E+00
  0.00000000E+00  0.00000000E+00  0.00000000E+00
  0.00000000E+00  0.00000000E+00  0.00000000E+00
  0.00000000E+00  0.00000000E+00  0.00000000E+00
