126-NbTaCrMoW                           
   1.00000000000000     
     8.6841761333393652   -0.0126575941799397    0.0035354880787751
    -0.0071242977211112    8.7701561524613965    0.0024350920210385
     0.0345803098089232   -0.0125276200431414    8.8068183442754062
   Ta   W    Nb   N    C    Cr   Mo
     7     6     7    13    19     6     6
Direct
  0.9990016331197007  0.9916404945487171  0.0072679712422938
  0.2581213874614883  0.9924805684706266  0.2559711398549754
  0.2521741231124454  0.5084506852890105  0.2479014727880523
  0.5036399105813526  0.5010560519127530  0.9940699216624969
  0.5024091644502260  0.2403309782847620  0.7560012947524423
  0.9937343288881259  0.5043562674994855  0.5045131961170859
  0.5011604223138744  0.7586765243862258  0.7395350531176551
  0.9893008823879883  0.2283031056108661  0.2613050130438823
  0.7623646322082603  0.7426041349983151  0.9970683977444004
  0.0149288747338568  0.2348035178127214  0.7359774078844169
  0.7612561280417162  0.2338909377441343  0.4812363442337739
  0.0028347794483005  0.7372648315136553  0.7524067725932118
  0.2497202928614855  0.5016989097868628  0.7522132786043122
  0.2519466793312388  0.2593296112057496  0.9916589369780581
  0.5062550483593244  0.2433040722861593  0.2519779905155278
  0.7363315835381695  0.9977670130718168  0.2717243579716959
  0.7472558297759890  0.2560801353528277  0.9857720912022115
  0.2494687231402661  0.7467319661804829  0.9999126351106891
  0.2560195506002427  0.2506825359227707  0.5056666506433671
  0.2485851890888026  0.7539695567123886  0.5011941402289085
  0.2440052974568604  0.2494611090226377  0.2511809387900322
  0.2429463117774896  0.0016473610935914  0.0061664522418018
  0.9987496358331244  0.2393558569622704  0.0096897757476068
  0.7531912370155469  0.2533568729660716  0.2376065260821796
  0.7488585040136075  0.9953349604006789  0.0038134244587910
  0.4966582498396458  0.9847510621249000  0.2343837716018616
  0.0019898385939161  0.4878157486857777  0.2592743468036419
  0.5036594775757267  0.7521096567401121  0.9902454828725320
  0.9957533721554240  0.9911531550044411  0.7623682616541664
  0.7549862016373753  0.2252226450337502  0.7412651287197528
  0.7408184531499189  0.9984274253371620  0.5209238018379224
  0.5103400621809084  0.2504634473078328  0.5074435442584138
  0.4917199782797737  0.0001529193808363  0.7564790187462060
  0.9977983139173474  0.9967300869245951  0.2626799746694506
  0.4989961204066483  0.2492467147809563  0.0027474629005103
  0.2589576677968213  0.7504115997383140  0.2500319260967650
  0.2397524996186817  0.5006448283101733  0.9999196283217041
  0.0024572244006744  0.7421092991341407  0.0019632042864436
  0.7392001701315454  0.7504863016047065  0.2411981796093605
  0.7644930361747280  0.4986203027078449  0.0088908180177073
  0.4951981078727844  0.5055482841884972  0.2455872133350392
  0.2543375189224665  0.2429511305705848  0.7504026338642472
  0.2652993299557387  0.0027161558330369  0.5050804695427457
  0.0033806476969474  0.2567552940902231  0.5010060812053732
  0.2502112963634968  0.7610363759066407  0.7509836280459392
  0.2499451286267560  0.5021487560231661  0.5007331523689744
  0.9969778569338696  0.7561900105097459  0.5037458420613016
  0.9959266960651748  0.4862325304632724  0.7513438218718892
  0.7540515937339902  0.7621446654594825  0.7456509593048000
  0.7466897467866715  0.4857947114664028  0.5072788649471234
  0.5031213017859854  0.7689028091396455  0.4965406205823615
  0.4980869087144225  0.5016516719523035  0.7448091511695594
  0.5269897790180661  0.0224110689448736  0.9808107093267286
  0.9975514094491982  0.5263612329853959  0.9652938852322025
  0.5043643465021981  0.7379285738298571  0.2822876332780460
  0.2278371319508021  0.0056998103030168  0.7229161457774721
  0.4980210732915894  0.0227623558850345  0.4657741493762637
  0.7197788544079879  0.9837423380851685  0.7771435078334847
  0.9963314828664188  0.7651857677127163  0.2447323445932395
  0.7308662510983138  0.5152438377120067  0.2591061587670616
  0.0110814317446695  0.0129692569005378  0.5155352936179589
  0.5059845386004121  0.5189047517669269  0.4919161523332424
  0.7468586154186775  0.5192212391799127  0.7582364186657593
  0.7492685127947458  0.7365738702404534  0.4914395648928699
 
  0.00000000E+00  0.00000000E+00  0.00000000E+00
  0.00000000E+00  0.00000000E+00  0.00000000E+00
  0.00000000E+00  0.00000000E+00  0.00000000E+00
  0.00000000E+00  0.00000000E+00  0.00000000E+00
  0.00000000E+00  0.00000000E+00  0.00000000E+00
  0.00000000E+00  0.00000000E+00  0.00000000E+00
  0.00000000E+00  0.00000000E+00  0.00000000E+00
  0.00000000E+00  0.00000000E+00  0.00000000E+00
  0.00000000E+00  0.00000000E+00  0.00000000E+00
  0.00000000E+00  0.00000000E+00  0.00000000E+00
  0.00000000E+00  0.00000000E+00  0.00000000E+00
  0.00000000E+00  0.00000000E+00  0.00000000E+00
  0.00000000E+00  0.00000000E+00  0.00000000E+00
  0.00000000E+00  0.00000000E+00  0.00000000E+00
  0.00000000E+00  0.00000000E+00  0.00000000E+00
  0.00000000E+00  0.00000000E+00  0.00000000E+00
  0.00000000E+00  0.00000000E+00  0.00000000E+00
  0.00000000E+00  0.00000000E+00  0.00000000E+00
  0.00000000E+00  0.00000000E+00  0.00000000E+00
  0.00000000E+00  0.00000000E+00  0.00000000E+00
  0.00000000E+00  0.00000000E+00  0.00000000E+00
  0.00000000E+00  0.00000000E+00  0.00000000E+00
  0.00000000E+00  0.00000000E+00  0.00000000E+00
  0.00000000E+00  0.00000000E+00  0.00000000E+00
  0.00000000E+00  0.00000000E+00  0.00000000E+00
  0.00000000E+00  0.00000000E+00  0.00000000E+00
  0.00000000E+00  0.00000000E+00  0.00000000E+00
  0.00000000E+00  0.00000000E+00  0.00000000E+00
  0.00000000E+00  0.00000000E+00  0.00000000E+00
  0.00000000E+00  0.00000000E+00  0.00000000E+00
  0.00000000E+00  0.00000000E+00  0.00000000E+00
  0.00000000E+00  0.00000000E+00  0.00000000E+00
  0.00000000E+00  0.00000000E+00  0.00000000E+00
  0.00000000E+00  0.00000000E+00  0.00000000E+00
  0.00000000E+00  0.00000000E+00  0.00000000E+00
  0.00000000E+00  0.00000000E+00  0.00000000E+00
  0.00000000E+00  0.00000000E+00  0.00000000E+00
  0.00000000E+00  0.00000000E+00  0.00000000E+00
  0.00000000E+00  0.00000000E+00  0.00000000E+00
  0.00000000E+00  0.00000000E+00  0.00000000E+00
  0.00000000E+00  0.00000000E+00  0.00000000E+00
  0.00000000E+00  0.00000000E+00  0.00000000E+00
  0.00000000E+00  0.00000000E+00  0.00000000E+00
  0.00000000E+00  0.00000000E+00  0.00000000E+00
  0.00000000E+00  0.00000000E+00  0.00000000E+00
  0.00000000E+00  0.00000000E+00  0.00000000E+00
  0.00000000E+00  0.00000000E+00  0.00000000E+00
  0.00000000E+00  0.00000000E+00  0.00000000E+00
  0.00000000E+00  0.00000000E+00  0.00000000E+00
  0.00000000E+00  0.00000000E+00  0.00000000E+00
  0.00000000E+00  0.00000000E+00  0.00000000E+00
  0.00000000E+00  0.00000000E+00  0.00000000E+00
  0.00000000E+00  0.00000000E+00  0.00000000E+00
  0.00000000E+00  0.00000000E+00  0.00000000E+00
  0.00000000E+00  0.00000000E+00  0.00000000E+00
  0.00000000E+00  0.00000000E+00  0.00000000E+00
  0.00000000E+00  0.00000000E+00  0.00000000E+00
  0.00000000E+00  0.00000000E+00  0.00000000E+00
  0.00000000E+00  0.00000000E+00  0.00000000E+00
  0.00000000E+00  0.00000000E+00  0.00000000E+00
  0.00000000E+00  0.00000000E+00  0.00000000E+00
  0.00000000E+00  0.00000000E+00  0.00000000E+00
  0.00000000E+00  0.00000000E+00  0.00000000E+00
  0.00000000E+00  0.00000000E+00  0.00000000E+00
