51-HfVNbTaMo                            
   1.00000000000000     
     8.8407551066820087    0.0061064018366782    0.0260283384998604
     0.0123371496673012    8.8091555021485686   -0.0285527495701002
     0.0580178710820071   -0.0436050236054728    8.8542961007681225
  Hf              Nb              V               N               C               Mo              Ta            
     7     6     7    13    19     6     6
Direct
  0.0070920499800586  0.0068592151903225  0.9968480434007208
  0.2657439256918624  0.0065292430253359  0.2414488092567902
  0.2491968025499523  0.4927066369709664  0.2517247654118879
  0.4991562179581879  0.5013533341099807  0.0006117082253919
  0.4998318906964612  0.2409085599788115  0.7470847082355581
  0.0021825833706264  0.5011802962678487  0.5025341539424949
  0.4922742802791815  0.7586609862637228  0.7556499965126201
  0.9955531399502505  0.2374186400989274  0.2561729828842634
  0.7588245894181790  0.7519297105386803  0.0045390261910619
  0.0021760997821742  0.2551797533025594  0.7490667658531639
  0.7565448639936478  0.2422844596179773  0.4892104473656370
  0.0008424605123556  0.7493143007865212  0.7538882142401055
  0.2474010489868108  0.5013429763727810  0.7505784166166677
  0.2543126911841641  0.2676671516885308  0.9826023178258571
  0.5154511651237820  0.2589641197280582  0.2385443835107011
  0.7376452679412473  0.9972811485593516  0.2746372515230511
  0.7254905312449443  0.2447596850472079  0.0101311571925140
  0.2309923208078083  0.7293869896226599  0.0012217222715165
  0.2350641213744305  0.2421014012087123  0.5166451856470187
  0.2601176920887494  0.7615002333104901  0.4949826260391352
  0.2475627969367599  0.2488262344473098  0.2479554216171300
  0.2561223756296710  0.0032199399396045  0.9954681021481054
  0.9992338341729999  0.2522548158397522  0.0024797944965080
  0.7467127144603866  0.2444486789990752  0.2402071800610635
  0.7571733708469153  0.0084057275188407  0.0161462291926115
  0.5123900579934840  0.0034385054783698  0.2352232698391465
  0.9980387832196751  0.4996271666623870  0.2499041424471754
  0.4961259392887855  0.7546991866669498  0.0028860205687399
  0.9832701107897084  0.0041522456360431  0.7490440304311664
  0.7496789028540866  0.2478031229912340  0.7518382216626793
  0.7597257146146265  0.9990044185230168  0.5129923297787732
  0.5009276305811335  0.2482546161607234  0.4913423970961333
  0.4917287337018199  0.0000635526184304  0.7357367760969969
  0.9988055011169117  0.9995980446746527  0.2539034068038197
  0.4909451395480414  0.2487264388261346  0.0024070058742206
  0.2530158336444137  0.7504835666994516  0.2459485811122566
  0.2471085068408108  0.4984796681595362  0.9995132668665317
  0.0034776474222825  0.7498168203121557  0.0031182050631282
  0.7520964930558310  0.7539844490778798  0.2530362704005742
  0.7532024720870044  0.4926632606174799  0.0013638647533807
  0.5025662494476737  0.4937596808556990  0.2529565214696647
  0.2476907959073945  0.2482116055697882  0.7508330847425463
  0.2645132374856816  0.0030797162714793  0.4969746707684283
  0.0040036677192066  0.2485801315403940  0.5019483337620286
  0.2441447694876198  0.7527769789015576  0.7521989464363109
  0.2541775270614828  0.4975804994157427  0.5011618766037704
  0.0040085475643258  0.7547895263707203  0.5006739257943619
  0.9981555367989213  0.5021390480312572  0.7499429726095440
  0.7474672211883548  0.7487763740440303  0.7521772719985085
  0.7469250249355159  0.4984965233258368  0.4983777197329415
  0.4950207190809956  0.7467735455638936  0.5030667308716705
  0.5002268936136718  0.4993270659316447  0.7458871464215578
  0.5220184992800395  0.0104916066794903  0.9848056257709120
  0.0024402411161697  0.5030049726421972  0.9893142116156501
  0.4972852240268948  0.7446274556191853  0.2609287746990025
  0.2357706330712431  0.9980911581635923  0.7383107020473901
  0.5086291642193698  0.9863568314308423  0.4762333004917745
  0.7318174089606042  0.9853237687886888  0.7772932892616818
  0.0064090377635964  0.7614573658472992  0.2520329257213048
  0.7483084986821815  0.4992525875462720  0.2481366869059512
  0.0150065242047349  0.0019516790008642  0.5065205998070832
  0.4967444256235329  0.4999933283376009  0.5002462715587975
  0.7496302653982823  0.5047140382578680  0.7544790286973114
  0.7438039616222515  0.7551649613255940  0.4968623197555421
 
  0.00000000E+00  0.00000000E+00  0.00000000E+00
  0.00000000E+00  0.00000000E+00  0.00000000E+00
  0.00000000E+00  0.00000000E+00  0.00000000E+00
  0.00000000E+00  0.00000000E+00  0.00000000E+00
  0.00000000E+00  0.00000000E+00  0.00000000E+00
  0.00000000E+00  0.00000000E+00  0.00000000E+00
  0.00000000E+00  0.00000000E+00  0.00000000E+00
  0.00000000E+00  0.00000000E+00  0.00000000E+00
  0.00000000E+00  0.00000000E+00  0.00000000E+00
  0.00000000E+00  0.00000000E+00  0.00000000E+00
  0.00000000E+00  0.00000000E+00  0.00000000E+00
  0.00000000E+00  0.00000000E+00  0.00000000E+00
  0.00000000E+00  0.00000000E+00  0.00000000E+00
  0.00000000E+00  0.00000000E+00  0.00000000E+00
  0.00000000E+00  0.00000000E+00  0.00000000E+00
  0.00000000E+00  0.00000000E+00  0.00000000E+00
  0.00000000E+00  0.00000000E+00  0.00000000E+00
  0.00000000E+00  0.00000000E+00  0.00000000E+00
  0.00000000E+00  0.00000000E+00  0.00000000E+00
  0.00000000E+00  0.00000000E+00  0.00000000E+00
  0.00000000E+00  0.00000000E+00  0.00000000E+00
  0.00000000E+00  0.00000000E+00  0.00000000E+00
  0.00000000E+00  0.00000000E+00  0.00000000E+00
  0.00000000E+00  0.00000000E+00  0.00000000E+00
  0.00000000E+00  0.00000000E+00  0.00000000E+00
  0.00000000E+00  0.00000000E+00  0.00000000E+00
  0.00000000E+00  0.00000000E+00  0.00000000E+00
  0.00000000E+00  0.00000000E+00  0.00000000E+00
  0.00000000E+00  0.00000000E+00  0.00000000E+00
  0.00000000E+00  0.00000000E+00  0.00000000E+00
  0.00000000E+00  0.00000000E+00  0.00000000E+00
  0.00000000E+00  0.00000000E+00  0.00000000E+00
  0.00000000E+00  0.00000000E+00  0.00000000E+00
  0.00000000E+00  0.00000000E+00  0.00000000E+00
  0.00000000E+00  0.00000000E+00  0.00000000E+00
  0.00000000E+00  0.00000000E+00  0.00000000E+00
  0.00000000E+00  0.00000000E+00  0.00000000E+00
  0.00000000E+00  0.00000000E+00  0.00000000E+00
  0.00000000E+00  0.00000000E+00  0.00000000E+00
  0.00000000E+00  0.00000000E+00  0.00000000E+00
  0.00000000E+00  0.00000000E+00  0.00000000E+00
  0.00000000E+00  0.00000000E+00  0.00000000E+00
  0.00000000E+00  0.00000000E+00  0.00000000E+00
  0.00000000E+00  0.00000000E+00  0.00000000E+00
  0.00000000E+00  0.00000000E+00  0.00000000E+00
  0.00000000E+00  0.00000000E+00  0.00000000E+00
  0.00000000E+00  0.00000000E+00  0.00000000E+00
  0.00000000E+00  0.00000000E+00  0.00000000E+00
  0.00000000E+00  0.00000000E+00  0.00000000E+00
  0.00000000E+00  0.00000000E+00  0.00000000E+00
  0.00000000E+00  0.00000000E+00  0.00000000E+00
  0.00000000E+00  0.00000000E+00  0.00000000E+00
  0.00000000E+00  0.00000000E+00  0.00000000E+00
  0.00000000E+00  0.00000000E+00  0.00000000E+00
  0.00000000E+00  0.00000000E+00  0.00000000E+00
  0.00000000E+00  0.00000000E+00  0.00000000E+00
  0.00000000E+00  0.00000000E+00  0.00000000E+00
  0.00000000E+00  0.00000000E+00  0.00000000E+00
  0.00000000E+00  0.00000000E+00  0.00000000E+00
  0.00000000E+00  0.00000000E+00  0.00000000E+00
  0.00000000E+00  0.00000000E+00  0.00000000E+00
  0.00000000E+00  0.00000000E+00  0.00000000E+00
  0.00000000E+00  0.00000000E+00  0.00000000E+00
  0.00000000E+00  0.00000000E+00  0.00000000E+00
