51-HfVNbTaMo                            
   1.00000000000000     
     8.8435559317301191    0.0058045430036851    0.0244499212287430
     0.0120343069781329    8.8179953225970564   -0.0268456968660133
     0.0564497158858748   -0.0419256393968959    8.8563256908559911
   Hf   Nb   V    N    C    Mo   Ta
     7     6     7    13    19     6     6
Direct
  0.0070722869049769  0.0068908262325535  0.9968513314095625
  0.2657480595604316  0.0065972039463425  0.2414497648422564
  0.2491643816153789  0.4926520130154287  0.2517494766593900
  0.4991520205536145  0.5013442229196848  0.0006172953108071
  0.4998497331355559  0.2408620250910825  0.7470630143838389
  0.0021710867734292  0.5011837205108841  0.5025578766973233
  0.4922960318073948  0.7587104348091684  0.7556403623267516
  0.9954933154931099  0.2373071479460833  0.2561524628019475
  0.7588697614625062  0.7519159125795633  0.0045725821134671
  0.0021616868041891  0.2551686093371560  0.7490717623797484
  0.7565532913435722  0.2422400406225853  0.4892136234171727
  0.0008228693482253  0.7493263867631167  0.7538478671551302
  0.2474163294158951  0.5013591816558469  0.7505587109392839
  0.2543532612160235  0.2676578991941664  0.9825387010180002
  0.5155565716275973  0.2589917810002543  0.2386215205836891
  0.7375787525990672  0.9973055134812214  0.2746641657593463
  0.7254998856346837  0.2446850748180516  0.0100110152347868
  0.2309503543772230  0.7292963679329185  0.0012449406311632
  0.2350312416074634  0.2420604609910305  0.5166867870319847
  0.2600973076973968  0.7615494201936615  0.4949605908645205
  0.2474473641877653  0.2488447932045496  0.2479582672397819
  0.2560660531364282  0.0032833574647026  0.9955109762986324
 -0.0007161655755908  0.2522066478260245  0.0024880009201422
  0.7467720890528490  0.2444786538865712  0.2402162884798069
  0.7571404112040581  0.0083101678557769  0.0161280549648489
  0.5123071722779123  0.0034250409424975  0.2352419473983857
  0.9980204712861666  0.4996025862169755  0.2499429966622708
  0.4962152673691901  0.7546084135587986  0.0028793401825624
  0.9833176261808431  0.0041711555492145  0.7490336159844727
  0.7496593349103490  0.2478810809536232  0.7518558073838659
  0.7597361796626406 -0.0009973814930112  0.5129692233881742
  0.5009880376004906  0.2483273242358918  0.4913697393712249
  0.4917260774277560  0.0000634976163568  0.7357699502058802
  0.9988133610920034 -0.0004018429777211  0.2539181037917912
  0.4910236788690759  0.2487740600713102  0.0023978690466152
  0.2530013360150951  0.7504913461815060  0.2459510893707889
  0.2471019227036573  0.4984500194678890  0.9995129655184082
  0.0034548798030679  0.7498041809307504  0.0031069308703724
  0.7521092757596735  0.7539143630062062  0.2530289339195700
  0.7531944859612971  0.4927537476711948  0.0013646958626323
  0.5025738123875818  0.4937989014582041  0.2529515523564666
  0.2476684164482641  0.2482326747978897  0.7507915001233989
  0.2645120537394233  0.0030691938987536  0.4969901429285819
  0.0039794180829003  0.2485615225720728  0.5019281079263003
  0.2441356109347722  0.7527483131636170  0.7522017065696461
  0.2541907677700437  0.4975694504153806  0.5011852241754211
  0.0040410982968809  0.7548165765623835  0.5006634333071868
 -0.0018477074895242  0.5021439038325139  0.7499737535331609
  0.7474571261951152  0.7487760127928955  0.7521977777149789
  0.7469313320590232  0.4984692953720570  0.4983580774415748
  0.4950483254753195  0.7467988308300050  0.5030301706420165
  0.5002381013493891  0.4993275395950635  0.7458916781937215
  0.5220692991238191  0.0105883895260861  0.9847758801414747
  0.0024397252863135  0.5030359586543129  0.9893018917028962
  0.4972402042344573  0.7445901642838102  0.2608922718633924
  0.2357460981077646 -0.0019231262806030  0.7383060674881061
  0.5086009692112039  0.9862719045296584  0.4762361142007627
  0.7317894720772632  0.9851993759987373  0.7773037925406063
  0.0064341943860692  0.7615862123264968  0.2520639426723533
  0.7483234770523143  0.4992718646588358  0.2481239849921411
  0.0150041206636417  0.0019693260055962  0.5065382201028579
  0.4967692448621548  0.5000160899935620  0.5002381703566627
  0.7496388061054381  0.5047771281335621  0.7545004199076641
  0.7437993217378912  0.7552087926692056  0.4968376066982498
 
  0.00000000E+00  0.00000000E+00  0.00000000E+00
  0.00000000E+00  0.00000000E+00  0.00000000E+00
  0.00000000E+00  0.00000000E+00  0.00000000E+00
  0.00000000E+00  0.00000000E+00  0.00000000E+00
  0.00000000E+00  0.00000000E+00  0.00000000E+00
  0.00000000E+00  0.00000000E+00  0.00000000E+00
  0.00000000E+00  0.00000000E+00  0.00000000E+00
  0.00000000E+00  0.00000000E+00  0.00000000E+00
  0.00000000E+00  0.00000000E+00  0.00000000E+00
  0.00000000E+00  0.00000000E+00  0.00000000E+00
  0.00000000E+00  0.00000000E+00  0.00000000E+00
  0.00000000E+00  0.00000000E+00  0.00000000E+00
  0.00000000E+00  0.00000000E+00  0.00000000E+00
  0.00000000E+00  0.00000000E+00  0.00000000E+00
  0.00000000E+00  0.00000000E+00  0.00000000E+00
  0.00000000E+00  0.00000000E+00  0.00000000E+00
  0.00000000E+00  0.00000000E+00  0.00000000E+00
  0.00000000E+00  0.00000000E+00  0.00000000E+00
  0.00000000E+00  0.00000000E+00  0.00000000E+00
  0.00000000E+00  0.00000000E+00  0.00000000E+00
  0.00000000E+00  0.00000000E+00  0.00000000E+00
  0.00000000E+00  0.00000000E+00  0.00000000E+00
  0.00000000E+00  0.00000000E+00  0.00000000E+00
  0.00000000E+00  0.00000000E+00  0.00000000E+00
  0.00000000E+00  0.00000000E+00  0.00000000E+00
  0.00000000E+00  0.00000000E+00  0.00000000E+00
  0.00000000E+00  0.00000000E+00  0.00000000E+00
  0.00000000E+00  0.00000000E+00  0.00000000E+00
  0.00000000E+00  0.00000000E+00  0.00000000E+00
  0.00000000E+00  0.00000000E+00  0.00000000E+00
  0.00000000E+00  0.00000000E+00  0.00000000E+00
  0.00000000E+00  0.00000000E+00  0.00000000E+00
  0.00000000E+00  0.00000000E+00  0.00000000E+00
  0.00000000E+00  0.00000000E+00  0.00000000E+00
  0.00000000E+00  0.00000000E+00  0.00000000E+00
  0.00000000E+00  0.00000000E+00  0.00000000E+00
  0.00000000E+00  0.00000000E+00  0.00000000E+00
  0.00000000E+00  0.00000000E+00  0.00000000E+00
  0.00000000E+00  0.00000000E+00  0.00000000E+00
  0.00000000E+00  0.00000000E+00  0.00000000E+00
  0.00000000E+00  0.00000000E+00  0.00000000E+00
  0.00000000E+00  0.00000000E+00  0.00000000E+00
  0.00000000E+00  0.00000000E+00  0.00000000E+00
  0.00000000E+00  0.00000000E+00  0.00000000E+00
  0.00000000E+00  0.00000000E+00  0.00000000E+00
  0.00000000E+00  0.00000000E+00  0.00000000E+00
  0.00000000E+00  0.00000000E+00  0.00000000E+00
  0.00000000E+00  0.00000000E+00  0.00000000E+00
  0.00000000E+00  0.00000000E+00  0.00000000E+00
  0.00000000E+00  0.00000000E+00  0.00000000E+00
  0.00000000E+00  0.00000000E+00  0.00000000E+00
  0.00000000E+00  0.00000000E+00  0.00000000E+00
  0.00000000E+00  0.00000000E+00  0.00000000E+00
  0.00000000E+00  0.00000000E+00  0.00000000E+00
  0.00000000E+00  0.00000000E+00  0.00000000E+00
  0.00000000E+00  0.00000000E+00  0.00000000E+00
  0.00000000E+00  0.00000000E+00  0.00000000E+00
  0.00000000E+00  0.00000000E+00  0.00000000E+00
  0.00000000E+00  0.00000000E+00  0.00000000E+00
  0.00000000E+00  0.00000000E+00  0.00000000E+00
  0.00000000E+00  0.00000000E+00  0.00000000E+00
  0.00000000E+00  0.00000000E+00  0.00000000E+00
  0.00000000E+00  0.00000000E+00  0.00000000E+00
  0.00000000E+00  0.00000000E+00  0.00000000E+00
