115-TiNbCrMoW                           
   1.00000000000000     
     8.6524567433158239    0.0039826685593214   -0.0008668336058260
     0.0096530320200560    8.6906183742377454    0.0214065733391202
     0.0301791457949495    0.0061859952580521    8.6823005653734704
   Nb   W    Ti   N    C    Cr   Mo
     7     6     7    13    19     6     6
Direct
  0.0067871740566752  0.9966595297396114  0.9890337686768967
  0.2550463022581812  0.9937416496480490  0.2529713786794792
  0.2506689244731703  0.5072642129372859  0.2452985443024014
  0.5044189636276190  0.4929194028704880  0.9976193261044956
  0.5029762891116992  0.2422834245549986  0.7497401533440731
  0.0026654750803914  0.5007533762645558  0.5072398310400101
  0.5015328100154516  0.7603398187420294  0.7398749530737725
  0.9919126483159812  0.2330724448268556  0.2593071174589137
  0.7637083406456477  0.7465038838593373 -0.0026628769389833
  0.0160423776779642  0.2342296306352103  0.7462961403522896
  0.7618455693787579  0.2563323645634377  0.4831060933776003
  0.0029852306471140  0.7358435946606298  0.7557523683161306
  0.2543551920624531  0.5041055583722893  0.7528897019636215
  0.2521688129047150  0.2488415270865802  0.9937482872296279
  0.5015243610003106  0.2464402009591997  0.2491735880935540
  0.7346754418482627  0.9913431193895668  0.2598299235685529
  0.7483311796402725  0.2454301631189433  0.9951717776916875
  0.2593246112866532  0.7539327898758615 -0.0002515856571774
  0.2562507186831259  0.2497656420995581  0.5061812851373879
  0.2505568296464407  0.7522637627908573  0.4998935966306027
  0.2492556403637374  0.2498601891198103  0.2509146119550733
  0.2617581714918633  0.0025902480788847  0.9960948480939062
  0.0014635564136329  0.2503878973687885  0.0052524444363999
  0.7448876694882992  0.2397393448086755  0.2417316395540769
  0.7451048897308148  0.9962722134959079  0.0037614422065538
  0.5009714111728967  0.0028609403238558  0.2426033936150533
  0.9990044851760568  0.4881781684988009  0.2509762419651342
  0.5040589915831386  0.7548265089069887 -0.0039733810784197
  0.9859750191148580 -0.0122316377826987  0.7424217594355401
  0.7585391295996856  0.2282458333611681  0.7451686107406192
  0.7428165519313238  0.0083986876012680  0.4926037135862214
  0.5053368520667553  0.2448754673394738  0.4937318600861091
  0.4941298257323136  0.0006733209559473  0.7482486765082196
  0.9926397301167514 -0.0000483938571804  0.2466651816483686
  0.5021333659149745  0.2492419210747846  0.0018657286931728
  0.2597537826434352  0.7517548123552551  0.2502140817364152
  0.2438135761731513  0.5018883558333784  0.9968411882430634
  0.0106782213498286  0.7447321089394529  0.0050715088200725
  0.7408667541688707  0.7467081310758903  0.2456947484385670
  0.7636010815301545  0.4948566865905638  0.0096626708673428
  0.4949398084052706  0.5016076483741662  0.2469508404408998
  0.2567742177751959  0.2473076356804470  0.7496937154277200
  0.2555427313159134  0.0010369826729938  0.5154883649380364
  0.0080365795699040  0.2503300564380543  0.5035750302737819
  0.2491701324126569  0.7602097655037447  0.7510809954091714
  0.2512454837876339  0.5011860565086733  0.5011360173936190
  0.0018753421890578  0.7531677475753937  0.5032198758963161
 -0.0005091218054412  0.4856711764012007  0.7575149964466069
  0.7556051968812103  0.7704111270156212  0.7454029117145126
  0.7483870885209104  0.4928392062558501  0.5098316733003423
  0.4988504000887158  0.7649389876127000  0.4910978516097535
  0.5017890149622811  0.5016757521989369  0.7455651570328136
  0.5098454883361020  0.0243352737501967  0.9855623468930645
  0.9905117401500713  0.5232742394712440  0.9758413157810154
  0.5042278907873433  0.7321702415514815  0.2757718799660352
  0.2162835787144657  0.0129585158563396  0.7631260291300990
  0.4739347953822090  0.0004370356592561  0.4924327642124403
  0.7172606934135619  0.9956688382096401  0.7839090809396227
 -0.0012456594764034  0.7677754675261227  0.2516604382637707
  0.7312479195242191  0.5047218654464966  0.2552174413397462
  0.0163616558864657  0.0028801224131410  0.4966588215222299
  0.4965006316437950  0.5131510824148542  0.4926895595978854
  0.7489589669911709  0.5212728095342164  0.7639039830045155
  0.7498398424202458  0.7350952158448745  0.4969047034695950
 
  0.00000000E+00  0.00000000E+00  0.00000000E+00
  0.00000000E+00  0.00000000E+00  0.00000000E+00
  0.00000000E+00  0.00000000E+00  0.00000000E+00
  0.00000000E+00  0.00000000E+00  0.00000000E+00
  0.00000000E+00  0.00000000E+00  0.00000000E+00
  0.00000000E+00  0.00000000E+00  0.00000000E+00
  0.00000000E+00  0.00000000E+00  0.00000000E+00
  0.00000000E+00  0.00000000E+00  0.00000000E+00
  0.00000000E+00  0.00000000E+00  0.00000000E+00
  0.00000000E+00  0.00000000E+00  0.00000000E+00
  0.00000000E+00  0.00000000E+00  0.00000000E+00
  0.00000000E+00  0.00000000E+00  0.00000000E+00
  0.00000000E+00  0.00000000E+00  0.00000000E+00
  0.00000000E+00  0.00000000E+00  0.00000000E+00
  0.00000000E+00  0.00000000E+00  0.00000000E+00
  0.00000000E+00  0.00000000E+00  0.00000000E+00
  0.00000000E+00  0.00000000E+00  0.00000000E+00
  0.00000000E+00  0.00000000E+00  0.00000000E+00
  0.00000000E+00  0.00000000E+00  0.00000000E+00
  0.00000000E+00  0.00000000E+00  0.00000000E+00
  0.00000000E+00  0.00000000E+00  0.00000000E+00
  0.00000000E+00  0.00000000E+00  0.00000000E+00
  0.00000000E+00  0.00000000E+00  0.00000000E+00
  0.00000000E+00  0.00000000E+00  0.00000000E+00
  0.00000000E+00  0.00000000E+00  0.00000000E+00
  0.00000000E+00  0.00000000E+00  0.00000000E+00
  0.00000000E+00  0.00000000E+00  0.00000000E+00
  0.00000000E+00  0.00000000E+00  0.00000000E+00
  0.00000000E+00  0.00000000E+00  0.00000000E+00
  0.00000000E+00  0.00000000E+00  0.00000000E+00
  0.00000000E+00  0.00000000E+00  0.00000000E+00
  0.00000000E+00  0.00000000E+00  0.00000000E+00
  0.00000000E+00  0.00000000E+00  0.00000000E+00
  0.00000000E+00  0.00000000E+00  0.00000000E+00
  0.00000000E+00  0.00000000E+00  0.00000000E+00
  0.00000000E+00  0.00000000E+00  0.00000000E+00
  0.00000000E+00  0.00000000E+00  0.00000000E+00
  0.00000000E+00  0.00000000E+00  0.00000000E+00
  0.00000000E+00  0.00000000E+00  0.00000000E+00
  0.00000000E+00  0.00000000E+00  0.00000000E+00
  0.00000000E+00  0.00000000E+00  0.00000000E+00
  0.00000000E+00  0.00000000E+00  0.00000000E+00
  0.00000000E+00  0.00000000E+00  0.00000000E+00
  0.00000000E+00  0.00000000E+00  0.00000000E+00
  0.00000000E+00  0.00000000E+00  0.00000000E+00
  0.00000000E+00  0.00000000E+00  0.00000000E+00
  0.00000000E+00  0.00000000E+00  0.00000000E+00
  0.00000000E+00  0.00000000E+00  0.00000000E+00
  0.00000000E+00  0.00000000E+00  0.00000000E+00
  0.00000000E+00  0.00000000E+00  0.00000000E+00
  0.00000000E+00  0.00000000E+00  0.00000000E+00
  0.00000000E+00  0.00000000E+00  0.00000000E+00
  0.00000000E+00  0.00000000E+00  0.00000000E+00
  0.00000000E+00  0.00000000E+00  0.00000000E+00
  0.00000000E+00  0.00000000E+00  0.00000000E+00
  0.00000000E+00  0.00000000E+00  0.00000000E+00
  0.00000000E+00  0.00000000E+00  0.00000000E+00
  0.00000000E+00  0.00000000E+00  0.00000000E+00
  0.00000000E+00  0.00000000E+00  0.00000000E+00
  0.00000000E+00  0.00000000E+00  0.00000000E+00
  0.00000000E+00  0.00000000E+00  0.00000000E+00
  0.00000000E+00  0.00000000E+00  0.00000000E+00
  0.00000000E+00  0.00000000E+00  0.00000000E+00
  0.00000000E+00  0.00000000E+00  0.00000000E+00
