46-ZrVNbTaMo                            
   1.00000000000000     
     8.8783101020501505    0.0101302440284018    0.0235476624451820
     0.0163458483861448    8.8549015920015730   -0.0232855064796524
     0.0556533031568749   -0.0384192804545244    8.8872818154821225
  Zr              Nb              V               N               C               Mo              Ta            
     7     6     7    13    19     6     6
Direct
  0.0074517392501599  0.0061719981619578  0.9961908129721306
  0.2677118551315284  0.0065908379886186  0.2414714665325384
  0.2479639825082638  0.4927423846943315  0.2517859450493696
  0.4992450428834204  0.5005410260247675  0.0015560751614340
  0.5001204733035508  0.2411032719085878  0.7468027185046671
  0.0017985024042251  0.5006009630779704  0.5036450875009901
  0.4921488995477393  0.7589663864654933  0.7558224459394483
  0.9941873648524795  0.2361655512929257  0.2550370541384230
  0.7591598183907110  0.7520532818885662  0.0047780325042168
  0.0019756974724772  0.2546610509913404  0.7503857950337266
  0.7559789719085117  0.2424376507855819  0.4892089810174844
  0.0006700790040575  0.7496387944512256  0.7539669124684789
  0.2476527948341734  0.5011859752842249  0.7503128448234901
  0.2562085806355104  0.2658897060696894  0.9820917383492097
  0.5203480926613584  0.2632070133756394  0.2465873680990375
  0.7366279858973386  0.9971442039798444  0.2751658821362649
  0.7260316759310769  0.2435515912484420  0.0068086580999451
  0.2300134187233875  0.7282894066348555  0.0015167452886419
  0.2349909882229682  0.2413528108983865  0.5184042521984109
  0.2598990239644750  0.7616402046475853  0.4945730988102163
  0.2419399131593727  0.2485278095507617  0.2473000102441477
  0.2607350891809161  0.0032289886007506  0.9913321499096701
  0.9994610378107744  0.2555156048574677  0.0032975489397015
  0.7468261465490300  0.2449689836889104  0.2400219736244898
  0.7540205542475265  0.0074938568440586  0.0153721841622528
  0.5170271431239249  0.0025425909292187  0.2347801996685513
  0.9939858137508431  0.5001288023376369  0.2471453142548361
  0.4968263724258391  0.7581405279272917  0.0065889676405018
  0.9832654066835302  0.0037320093863783  0.7445854267526250
  0.7534594436893218  0.2482005371096818  0.7532655283297831
  0.7585267450726219  0.9993266815487128  0.5119593341347013
  0.5004648665773930  0.2488902047854878  0.4858131636321618
  0.4927613007769196  0.0001781226354900  0.7317764360357755
  0.9968386639774789  0.9994196035965534  0.2554178568164910
  0.4917329619927923  0.2459436546157806  0.0072993380540665
  0.2522992649401204  0.7504288772377736  0.2460865143987081
  0.2452282635438778  0.4976893789034369  0.9974857633216507
  0.0033771328663289  0.7478265586015251  0.0036084307418339
  0.7518320778434389  0.7539248715161438  0.2531041545450029
  0.7549833919796376  0.4928406546175378  0.0013527210417328
  0.5043055034480964  0.4941002451152489  0.2550835071360674
  0.2464107528763468  0.2487189514299152  0.7508157539044287
  0.2635042291700669  0.0027136073031475  0.4998579406060123
  0.0042572848019291  0.2463807420225824  0.5019361571719199
  0.2419452103593433  0.7525177946768751  0.7524559971051494
  0.2561367948161690  0.4972436826202632  0.5034735777249630
  0.0038486845890850  0.7565415345872218  0.5004339819664420
  0.9981977616273959  0.5020499685854714  0.7519922771283710
  0.7493601914656587  0.7493802492237193  0.7520815063505558
  0.7453424593827994  0.4986952314046770  0.4986964140578065
  0.4948986553903746  0.7474356522196536  0.5009012150590031
  0.5006956651003007  0.4995191166204850  0.7445500261207109
  0.5206983594425542  0.0091528257652672  0.9818767499711162
  0.0019996384060093  0.5036590760375430  0.9885153522141371
  0.4962042790932337  0.7420796969636418  0.2596097752102936
  0.2351050753577921  0.9984911386041280  0.7417214641925356
  0.5081026601310362  0.9862658061119497  0.4769706713855144
  0.7314300809319707  0.9855915871985736  0.7773347283542504
  0.0065490053646083  0.7624324054908144  0.2522814145126714
  0.7501408248227148  0.5002664249085073  0.2482514269305532
  0.0146592501759435  0.0019227672593883  0.5057554084402394
  0.4971006365039858  0.5014167419554170  0.5002708519914174
  0.7496302883546336  0.5049672958246927  0.7548338142085596
  0.7437005066688316  0.7555747799101888  0.4965951933804920
 
  0.00000000E+00  0.00000000E+00  0.00000000E+00
  0.00000000E+00  0.00000000E+00  0.00000000E+00
  0.00000000E+00  0.00000000E+00  0.00000000E+00
  0.00000000E+00  0.00000000E+00  0.00000000E+00
  0.00000000E+00  0.00000000E+00  0.00000000E+00
  0.00000000E+00  0.00000000E+00  0.00000000E+00
  0.00000000E+00  0.00000000E+00  0.00000000E+00
  0.00000000E+00  0.00000000E+00  0.00000000E+00
  0.00000000E+00  0.00000000E+00  0.00000000E+00
  0.00000000E+00  0.00000000E+00  0.00000000E+00
  0.00000000E+00  0.00000000E+00  0.00000000E+00
  0.00000000E+00  0.00000000E+00  0.00000000E+00
  0.00000000E+00  0.00000000E+00  0.00000000E+00
  0.00000000E+00  0.00000000E+00  0.00000000E+00
  0.00000000E+00  0.00000000E+00  0.00000000E+00
  0.00000000E+00  0.00000000E+00  0.00000000E+00
  0.00000000E+00  0.00000000E+00  0.00000000E+00
  0.00000000E+00  0.00000000E+00  0.00000000E+00
  0.00000000E+00  0.00000000E+00  0.00000000E+00
  0.00000000E+00  0.00000000E+00  0.00000000E+00
  0.00000000E+00  0.00000000E+00  0.00000000E+00
  0.00000000E+00  0.00000000E+00  0.00000000E+00
  0.00000000E+00  0.00000000E+00  0.00000000E+00
  0.00000000E+00  0.00000000E+00  0.00000000E+00
  0.00000000E+00  0.00000000E+00  0.00000000E+00
  0.00000000E+00  0.00000000E+00  0.00000000E+00
  0.00000000E+00  0.00000000E+00  0.00000000E+00
  0.00000000E+00  0.00000000E+00  0.00000000E+00
  0.00000000E+00  0.00000000E+00  0.00000000E+00
  0.00000000E+00  0.00000000E+00  0.00000000E+00
  0.00000000E+00  0.00000000E+00  0.00000000E+00
  0.00000000E+00  0.00000000E+00  0.00000000E+00
  0.00000000E+00  0.00000000E+00  0.00000000E+00
  0.00000000E+00  0.00000000E+00  0.00000000E+00
  0.00000000E+00  0.00000000E+00  0.00000000E+00
  0.00000000E+00  0.00000000E+00  0.00000000E+00
  0.00000000E+00  0.00000000E+00  0.00000000E+00
  0.00000000E+00  0.00000000E+00  0.00000000E+00
  0.00000000E+00  0.00000000E+00  0.00000000E+00
  0.00000000E+00  0.00000000E+00  0.00000000E+00
  0.00000000E+00  0.00000000E+00  0.00000000E+00
  0.00000000E+00  0.00000000E+00  0.00000000E+00
  0.00000000E+00  0.00000000E+00  0.00000000E+00
  0.00000000E+00  0.00000000E+00  0.00000000E+00
  0.00000000E+00  0.00000000E+00  0.00000000E+00
  0.00000000E+00  0.00000000E+00  0.00000000E+00
  0.00000000E+00  0.00000000E+00  0.00000000E+00
  0.00000000E+00  0.00000000E+00  0.00000000E+00
  0.00000000E+00  0.00000000E+00  0.00000000E+00
  0.00000000E+00  0.00000000E+00  0.00000000E+00
  0.00000000E+00  0.00000000E+00  0.00000000E+00
  0.00000000E+00  0.00000000E+00  0.00000000E+00
  0.00000000E+00  0.00000000E+00  0.00000000E+00
  0.00000000E+00  0.00000000E+00  0.00000000E+00
  0.00000000E+00  0.00000000E+00  0.00000000E+00
  0.00000000E+00  0.00000000E+00  0.00000000E+00
  0.00000000E+00  0.00000000E+00  0.00000000E+00
  0.00000000E+00  0.00000000E+00  0.00000000E+00
  0.00000000E+00  0.00000000E+00  0.00000000E+00
  0.00000000E+00  0.00000000E+00  0.00000000E+00
  0.00000000E+00  0.00000000E+00  0.00000000E+00
  0.00000000E+00  0.00000000E+00  0.00000000E+00
  0.00000000E+00  0.00000000E+00  0.00000000E+00
  0.00000000E+00  0.00000000E+00  0.00000000E+00
