124-VNbCrMoW                            
   1.00000000000000     
     8.5837364193272148    0.0050719893342614    0.0053953872461857
     0.0108252812145469    8.6017169996389615    0.0140130913447030
     0.0361363552199335   -0.0009505571055906    8.6464668618540141
   Nb   W    V    N    C    Cr   Mo
     7     6     7    13    19     6     6
Direct
  0.0083199127806189  0.0086461992180260  0.9878318360739058
  0.2604768670948705  0.9971320724770131  0.2451250147679126
  0.2524012232690752  0.4992717752265453  0.2486472762302662
  0.5034067907019054  0.4994931593470953  0.0014645208400366
  0.5069034244937419  0.2425732173869450  0.7513374597009866
  0.9965947269746060  0.5004481524928323  0.5073320733442778
  0.4966514591853430  0.7611156015358473  0.7448627896517332
  0.9848566298016124  0.2321151625232472  0.2554788883026550
  0.7645264182729541  0.7465135186739014  0.0005454413609267
  0.0133361757826047  0.2358321614821187  0.7523626300525083
  0.7601694175293271  0.2396259264793844  0.4837259638019583
  0.0040337964553303  0.7383938660400492  0.7543103294388904
  0.2543919285787534  0.5026598996884080  0.7506682199766560
  0.2642694269678677  0.2497739901503950  0.9844084364908063
  0.5192409247310449  0.2300254640597090  0.2623460727592013
  0.7355374199669855  0.0119420206665673  0.2811783228354345
  0.7346121888229349  0.2442634554903781  0.9820837896001137
  0.2387986494374141  0.7425530334413042  0.0031362832781000
  0.2500673377267254  0.2537504603137000  0.5136633877073565
  0.2529371503036599  0.7431648029682347  0.4947039882750274
  0.2468922364190587  0.2461698177938166  0.2487156829551065
  0.2654876474454259  0.9997560777114327  0.9962494308546901
  0.0056606262587184  0.2575960779358855  0.0084026248817624
  0.7469209856371191  0.2483303370458721  0.2321301090757484
  0.7483767719083323  0.0004638905765435  0.9997254752981036
  0.5071528825187797  0.9939519682292810  0.2445164474734253
  0.9978732324387404  0.4904961089094959  0.2516283205839497
  0.5005072584986394  0.7574077828843045  0.9982136405147085
  0.9904513124612471  0.9890308198228296  0.7394789662540434
  0.7605134958652173  0.2315703714093288  0.7417956051077204
  0.7402681060916885  0.9990697606378730  0.5065144850379728
  0.5021052799430868  0.2482909512928899  0.4934777878731999
  0.4899880996610609  0.0028486505375046  0.7440161634500375
  0.9918732653525172  0.9976935906947503  0.2443262853673411
  0.5009028699792163  0.2457815937513937  0.0077140523145342
  0.2598413594176333  0.7480597190483328  0.2474253124945393
  0.2412060217556057  0.4975995109035960  0.9970527194530466
  0.0070149502951531  0.7474814443454323  0.0058699865906763
  0.7395982854413645  0.7642184064615192  0.2446010741647681
  0.7628616890530411  0.4905856901121421  0.0084851896591472
  0.4982910848595813  0.4953584635980841  0.2494304858839954
  0.2568397219951808  0.2443737863274225  0.7482219776258596
  0.2564228234813624  0.0006601672042861  0.5100107271378899
  0.0088975908530190  0.2473306647134096  0.5017521088100659
  0.2471658107122771  0.7602104384102268  0.7503314299624655
  0.2512810942417065  0.4981699256120856  0.5015086047736325
  0.0059659594326973  0.7508395038241870  0.5044692614526409
  0.9993456285814906  0.4876166223294273  0.7557308181214377
  0.7526935411351444  0.7666698784037876  0.7484707364332555
  0.7468754219434224  0.4892867447526308  0.5053246859029862
  0.4952044271300630  0.7686759645494617  0.4930018616648585
  0.4995949143364566  0.5026988438531220  0.7475201037444580
  0.5154960793089377  0.0167408308329817  0.9809531892230918
  0.9928009881816250  0.5195955357683371  0.9739508615938390
  0.5007883614874978  0.7364686668771330  0.2749296980294642
  0.2211216006970091  0.0103431781580342  0.7739226276545097
  0.4725426631205957  0.0143023659093194  0.4844127634718399
  0.7173480129851718  0.9994074384277813  0.7783904908810950
  0.0038541087925542  0.7621420583152165  0.2580855399187967
  0.7352556302517222  0.5197209450798486  0.2533801377974933
  0.0216061442437463  0.9974728235259175  0.4914474124075008
  0.5000765005639553  0.5173351692204063  0.4930175874889938
  0.7460573547004673  0.5164133289371720  0.7606543052797425
  0.7474466676452551  0.7424698966037938  0.4955306368468251
 
  0.00000000E+00  0.00000000E+00  0.00000000E+00
  0.00000000E+00  0.00000000E+00  0.00000000E+00
  0.00000000E+00  0.00000000E+00  0.00000000E+00
  0.00000000E+00  0.00000000E+00  0.00000000E+00
  0.00000000E+00  0.00000000E+00  0.00000000E+00
  0.00000000E+00  0.00000000E+00  0.00000000E+00
  0.00000000E+00  0.00000000E+00  0.00000000E+00
  0.00000000E+00  0.00000000E+00  0.00000000E+00
  0.00000000E+00  0.00000000E+00  0.00000000E+00
  0.00000000E+00  0.00000000E+00  0.00000000E+00
  0.00000000E+00  0.00000000E+00  0.00000000E+00
  0.00000000E+00  0.00000000E+00  0.00000000E+00
  0.00000000E+00  0.00000000E+00  0.00000000E+00
  0.00000000E+00  0.00000000E+00  0.00000000E+00
  0.00000000E+00  0.00000000E+00  0.00000000E+00
  0.00000000E+00  0.00000000E+00  0.00000000E+00
  0.00000000E+00  0.00000000E+00  0.00000000E+00
  0.00000000E+00  0.00000000E+00  0.00000000E+00
  0.00000000E+00  0.00000000E+00  0.00000000E+00
  0.00000000E+00  0.00000000E+00  0.00000000E+00
  0.00000000E+00  0.00000000E+00  0.00000000E+00
  0.00000000E+00  0.00000000E+00  0.00000000E+00
  0.00000000E+00  0.00000000E+00  0.00000000E+00
  0.00000000E+00  0.00000000E+00  0.00000000E+00
  0.00000000E+00  0.00000000E+00  0.00000000E+00
  0.00000000E+00  0.00000000E+00  0.00000000E+00
  0.00000000E+00  0.00000000E+00  0.00000000E+00
  0.00000000E+00  0.00000000E+00  0.00000000E+00
  0.00000000E+00  0.00000000E+00  0.00000000E+00
  0.00000000E+00  0.00000000E+00  0.00000000E+00
  0.00000000E+00  0.00000000E+00  0.00000000E+00
  0.00000000E+00  0.00000000E+00  0.00000000E+00
  0.00000000E+00  0.00000000E+00  0.00000000E+00
  0.00000000E+00  0.00000000E+00  0.00000000E+00
  0.00000000E+00  0.00000000E+00  0.00000000E+00
  0.00000000E+00  0.00000000E+00  0.00000000E+00
  0.00000000E+00  0.00000000E+00  0.00000000E+00
  0.00000000E+00  0.00000000E+00  0.00000000E+00
  0.00000000E+00  0.00000000E+00  0.00000000E+00
  0.00000000E+00  0.00000000E+00  0.00000000E+00
  0.00000000E+00  0.00000000E+00  0.00000000E+00
  0.00000000E+00  0.00000000E+00  0.00000000E+00
  0.00000000E+00  0.00000000E+00  0.00000000E+00
  0.00000000E+00  0.00000000E+00  0.00000000E+00
  0.00000000E+00  0.00000000E+00  0.00000000E+00
  0.00000000E+00  0.00000000E+00  0.00000000E+00
  0.00000000E+00  0.00000000E+00  0.00000000E+00
  0.00000000E+00  0.00000000E+00  0.00000000E+00
  0.00000000E+00  0.00000000E+00  0.00000000E+00
  0.00000000E+00  0.00000000E+00  0.00000000E+00
  0.00000000E+00  0.00000000E+00  0.00000000E+00
  0.00000000E+00  0.00000000E+00  0.00000000E+00
  0.00000000E+00  0.00000000E+00  0.00000000E+00
  0.00000000E+00  0.00000000E+00  0.00000000E+00
  0.00000000E+00  0.00000000E+00  0.00000000E+00
  0.00000000E+00  0.00000000E+00  0.00000000E+00
  0.00000000E+00  0.00000000E+00  0.00000000E+00
  0.00000000E+00  0.00000000E+00  0.00000000E+00
  0.00000000E+00  0.00000000E+00  0.00000000E+00
  0.00000000E+00  0.00000000E+00  0.00000000E+00
  0.00000000E+00  0.00000000E+00  0.00000000E+00
  0.00000000E+00  0.00000000E+00  0.00000000E+00
  0.00000000E+00  0.00000000E+00  0.00000000E+00
  0.00000000E+00  0.00000000E+00  0.00000000E+00
