52-HfVNbTaW                             
   1.00000000000000     
     8.8350247963378532    0.0003568745781513    0.0296571170472724
     0.0063658464062426    8.8326503425443139   -0.0203326204205949
     0.0615465533978741   -0.0354293336316180    8.8684797892141933
   Hf   Nb   V    N    C    W    Ta
     7     6     7    13    19     6     6
Direct
  0.0056929365991374  0.0071593801424066 -0.0025195091121268
  0.2613350209965891  0.0066546231093429  0.2419213341885095
  0.2480269384785072  0.4922605163988367  0.2513628021389510
  0.4992962244227219  0.4987747615918335 -0.0002104839976835
  0.5004595052563368  0.2435344020632169  0.7469806806855895
  0.0024118907434599  0.5014922868903384  0.5029390005842650
  0.4933872975872737  0.7570220552655965  0.7557824152755394
  0.9955606501662961  0.2368538774490986  0.2564023439053389
  0.7601608885424357  0.7515343429215990  0.0039371721781237
  0.0020471747494537  0.2585460926285789  0.7483732539430410
  0.7569776534378743  0.2449746815969622  0.4871914526921033
  0.0017281246380606  0.7471866737521888  0.7536542280853975
  0.2489966500613681  0.5009841172329592  0.7499778917872879
  0.2525007572482025  0.2689523257741238  0.9831949322668561
  0.5113250852033391  0.2630323336220977  0.2390457961203530
  0.7484440787639846  0.9979160562634799  0.2760627471113740
  0.7258691439527292  0.2432210565472758  0.0138710837500413
  0.2307290772828937  0.7276987102325008  0.0026839430721858
  0.2345128797009043  0.2423094412653954  0.5182552372440909
  0.2600633731538244  0.7605602712945921  0.4942576894204675
  0.2499047691710958  0.2487380946343132  0.2462934881915071
  0.2582577237127991  0.0028861979095225  0.9923824052175484
 -0.0034967981856933  0.2542576005529036  0.0022023136862914
  0.7447932268409003  0.2453965500247637  0.2411368717230716
  0.7557242089611517  0.0083204045973808  0.0190982977852458
  0.5134763344065379 -0.0009172715812517  0.2351436900478930
  0.9971992296785823  0.4989082644860571  0.2468926582195733
  0.4955484120679398  0.7570027570362587  0.0050874964779617
  0.9879805330541163  0.0047156698916857  0.7490984084630664
  0.7508782293047984  0.2440051363899130  0.7510548500991623
  0.7537111541052014  0.0002852335637310  0.5204440885242164
  0.5001511996837914  0.2432321651764343  0.4900483821765033
  0.4941593335023815  0.0004912187051267  0.7341273404817248
  0.9996903693110990 -0.0005426219702278  0.2531733985280105
  0.4901043789020840  0.2474858522672843  0.0023047004276265
  0.2542768132943126  0.7503814457122319  0.2457392738821298
  0.2456418707775079  0.4984146835820983  0.9996433215598963
  0.0036719913589515  0.7484109545791806  0.0034721843513027
  0.7495915147375456  0.7546358792925133  0.2519617898159290
  0.7542215908212117  0.4922267894574042  0.0010658584456072
  0.5009331420123257  0.4952425285757269  0.2520151196197662
  0.2478169624005305  0.2465814138846429  0.7509059975945789
  0.2633766002529861  0.0028099786588280  0.4969662945059067
  0.0040039012352947  0.2492213291275538  0.5021833041944932
  0.2456337586343348  0.7546098615004467  0.7529999091773704
  0.2542491947898057  0.4966104147266731  0.5005947089312226
  0.0037037472535208  0.7552338153200345  0.5005739828246336
 -0.0011876164180251  0.5028063245418278  0.7503919841902357
  0.7483912164104251  0.7507548441561634  0.7518084976387704
  0.7471559993708830  0.4990601833173428  0.4977360252512701
  0.4951258739044316  0.7480102311881183  0.5025756377347068
  0.5006263778669330  0.4997495306331025  0.7458288211815118
  0.5214639738639736  0.0111240320130749  0.9875273009354028
  0.0014245326812369  0.5015785437208631  0.9888888535406795
  0.4957324537246112  0.7402598501595032  0.2593055095148890
  0.2393490237652979 -0.0023072546724247  0.7400036696745960
  0.5062433348732788  0.9862929472546832  0.4746572340263149
  0.7351229265803889  0.9866437719925900  0.7764841603472908
  0.0041617421671779  0.7619940375239490  0.2523027501026849
  0.7483117890351680  0.4989303072101117  0.2478448968701114
  0.0131249625346727  0.0024390024426722  0.5042435046266281
  0.4965407399171018  0.5033216747116428  0.4998272935631317
  0.7493801636763272  0.5064717914219135  0.7543701977620999
  0.7443041389755932  0.7535575812412176  0.4964296527477489
 
  0.00000000E+00  0.00000000E+00  0.00000000E+00
  0.00000000E+00  0.00000000E+00  0.00000000E+00
  0.00000000E+00  0.00000000E+00  0.00000000E+00
  0.00000000E+00  0.00000000E+00  0.00000000E+00
  0.00000000E+00  0.00000000E+00  0.00000000E+00
  0.00000000E+00  0.00000000E+00  0.00000000E+00
  0.00000000E+00  0.00000000E+00  0.00000000E+00
  0.00000000E+00  0.00000000E+00  0.00000000E+00
  0.00000000E+00  0.00000000E+00  0.00000000E+00
  0.00000000E+00  0.00000000E+00  0.00000000E+00
  0.00000000E+00  0.00000000E+00  0.00000000E+00
  0.00000000E+00  0.00000000E+00  0.00000000E+00
  0.00000000E+00  0.00000000E+00  0.00000000E+00
  0.00000000E+00  0.00000000E+00  0.00000000E+00
  0.00000000E+00  0.00000000E+00  0.00000000E+00
  0.00000000E+00  0.00000000E+00  0.00000000E+00
  0.00000000E+00  0.00000000E+00  0.00000000E+00
  0.00000000E+00  0.00000000E+00  0.00000000E+00
  0.00000000E+00  0.00000000E+00  0.00000000E+00
  0.00000000E+00  0.00000000E+00  0.00000000E+00
  0.00000000E+00  0.00000000E+00  0.00000000E+00
  0.00000000E+00  0.00000000E+00  0.00000000E+00
  0.00000000E+00  0.00000000E+00  0.00000000E+00
  0.00000000E+00  0.00000000E+00  0.00000000E+00
  0.00000000E+00  0.00000000E+00  0.00000000E+00
  0.00000000E+00  0.00000000E+00  0.00000000E+00
  0.00000000E+00  0.00000000E+00  0.00000000E+00
  0.00000000E+00  0.00000000E+00  0.00000000E+00
  0.00000000E+00  0.00000000E+00  0.00000000E+00
  0.00000000E+00  0.00000000E+00  0.00000000E+00
  0.00000000E+00  0.00000000E+00  0.00000000E+00
  0.00000000E+00  0.00000000E+00  0.00000000E+00
  0.00000000E+00  0.00000000E+00  0.00000000E+00
  0.00000000E+00  0.00000000E+00  0.00000000E+00
  0.00000000E+00  0.00000000E+00  0.00000000E+00
  0.00000000E+00  0.00000000E+00  0.00000000E+00
  0.00000000E+00  0.00000000E+00  0.00000000E+00
  0.00000000E+00  0.00000000E+00  0.00000000E+00
  0.00000000E+00  0.00000000E+00  0.00000000E+00
  0.00000000E+00  0.00000000E+00  0.00000000E+00
  0.00000000E+00  0.00000000E+00  0.00000000E+00
  0.00000000E+00  0.00000000E+00  0.00000000E+00
  0.00000000E+00  0.00000000E+00  0.00000000E+00
  0.00000000E+00  0.00000000E+00  0.00000000E+00
  0.00000000E+00  0.00000000E+00  0.00000000E+00
  0.00000000E+00  0.00000000E+00  0.00000000E+00
  0.00000000E+00  0.00000000E+00  0.00000000E+00
  0.00000000E+00  0.00000000E+00  0.00000000E+00
  0.00000000E+00  0.00000000E+00  0.00000000E+00
  0.00000000E+00  0.00000000E+00  0.00000000E+00
  0.00000000E+00  0.00000000E+00  0.00000000E+00
  0.00000000E+00  0.00000000E+00  0.00000000E+00
  0.00000000E+00  0.00000000E+00  0.00000000E+00
  0.00000000E+00  0.00000000E+00  0.00000000E+00
  0.00000000E+00  0.00000000E+00  0.00000000E+00
  0.00000000E+00  0.00000000E+00  0.00000000E+00
  0.00000000E+00  0.00000000E+00  0.00000000E+00
  0.00000000E+00  0.00000000E+00  0.00000000E+00
  0.00000000E+00  0.00000000E+00  0.00000000E+00
  0.00000000E+00  0.00000000E+00  0.00000000E+00
  0.00000000E+00  0.00000000E+00  0.00000000E+00
  0.00000000E+00  0.00000000E+00  0.00000000E+00
  0.00000000E+00  0.00000000E+00  0.00000000E+00
  0.00000000E+00  0.00000000E+00  0.00000000E+00
