62-TiZrNbCrW                            
   1.00000000000000     
     8.8167334547848561    0.0204622863928727   -0.0088205339389841
     0.0268777251786496    8.8162873984569021    0.0050795039512454
     0.0228184384060193   -0.0101791396854230    8.7998814444549911
   Zr   Nb   Ti   N    C    Cr   W 
     7     6     7    13    19     6     6
Direct
 -0.0012871887526212  0.9980642143905858  0.9962263371086035
  0.2683748889658305  0.0026082660149077  0.2431954431997508
  0.2451786494548687  0.4943571132332248  0.2462916574504996
  0.5009884274811259  0.4997628848053633  0.0026473048675867
  0.5078790937564641  0.2471867391341358  0.7410099979009295
 -0.0016852726792313  0.5018376822212205  0.5022303227983272
  0.4956637842147966  0.7591314551979108  0.7501471686583810
  0.9882187341939099  0.2397677079240063  0.2518351026860175
  0.7563241891804584  0.7456693188129612  0.0126713754454263
  0.0014885379697245  0.2505557410816451  0.7501588559932135
  0.7542811841567695  0.2460830824039466  0.4931682329542039
  0.0002061468342323  0.7497528474747175  0.7513471594053485
  0.2491873745148440  0.4936151568985653  0.7505835413195485
  0.2574899767078792  0.2424489743357174  0.9893878534911118
  0.5099891421008432  0.2539331015779885  0.2529836129838528
  0.7329172892324305  0.9948048649644626  0.2619500240751768
  0.7433755286757038  0.2431754762652527  0.0005388292227039
  0.2470453462555759  0.7477514481835141  0.9962026255174187
  0.2508409583961491  0.2458791074020950  0.5061399821401450
  0.2506192071425585  0.7513906171573227  0.5033118114590711
  0.2508319014202378  0.2478307502352650  0.2480028646143435
  0.2591348107851101  0.0019306714569763  0.9899601587754302
  0.0013690361683783  0.2554184929941559  0.0005924797258283
  0.7429896817173958  0.2387826815336090  0.2426521008639843
  0.7404967671601583  0.0003223560591379  0.0022398901602402
  0.5104868197487848 -0.0005952602590105  0.2770088729223624
  0.9909496158417084  0.5032486533075450  0.2425439662916443
  0.4967157064616495  0.7652229608289877  0.0091936224292883
  0.9867888386501410  0.0039145977438646  0.7395986848554081
  0.7567613790209574  0.2539241737688270  0.7521154596712799
  0.7628673236996891  0.0016578436785209  0.4960623615853487
  0.4983500829600321  0.2465021234735145  0.4891575283616291
  0.5281923376336904  0.0020285861726623  0.7413255193241288
  0.9972860280069827 -0.0005319443342065  0.2532718754457026
  0.5013118344287767  0.2376640669226067  0.0025618795538932
  0.2534088103333257  0.7496060693018242  0.2497738069009771
  0.2405445489973095  0.5006623848393875  0.9940273556937564
  0.0042553698443761  0.7404214047027367  0.0054522693876272
  0.7479377823540476  0.7453909824105439  0.2544804028551827
  0.7635842841643040  0.4934765712565824  0.0053581059451745
  0.5016082685932556  0.5024922063007295  0.2527830296308824
  0.2498277880829786  0.2457385755145500  0.7488470236432421
  0.2540196070822097  0.9998106207399944  0.5128972763090396
  0.0051160557311831  0.2470192592341365  0.5003393676865948
  0.2425953568164962  0.7577451126454315  0.7514317566162805
  0.2565281282212661  0.5021184121263177  0.5017850566548990
 -0.0014182148097100  0.7589413293169534  0.4990442991664861
  0.9993574659898320  0.5012160673357419  0.7558364301516256
  0.7510513433020318  0.7528365792481689  0.7508809432302456
  0.7440893641146952  0.4972135909324494  0.5064128576718424
  0.4977936722018083  0.7654233527289526  0.4881289575307245
  0.5051103475991536  0.5030241630780600  0.7421240211276326
  0.5174325371925805  0.0113840234615281  0.9632486973774012
 -0.0027178812240597  0.5135983726657226  0.9795195513661012
  0.4760059893718832  0.7374731644137252  0.2564799316851754
  0.2231880205309673  0.0159621360053170  0.7493999134130497
  0.4674638590730205  0.9946381336060374  0.5192862047080127
  0.7420122004993640  0.9662244458555241  0.7783958373011197
  0.0170022407926300  0.7666802512538137  0.2541239619672601
  0.7421456075030723  0.4881187572680564  0.2542996422682856
  0.0195960316319628  0.0046635789732918  0.4970457903297966
  0.5026728419295642  0.5185764986749830  0.4892519409836102
  0.7543950068442361  0.5163003677690431  0.7624865327985153
  0.7437657817301906  0.7381467862784019  0.4885446683416505
 
  0.00000000E+00  0.00000000E+00  0.00000000E+00
  0.00000000E+00  0.00000000E+00  0.00000000E+00
  0.00000000E+00  0.00000000E+00  0.00000000E+00
  0.00000000E+00  0.00000000E+00  0.00000000E+00
  0.00000000E+00  0.00000000E+00  0.00000000E+00
  0.00000000E+00  0.00000000E+00  0.00000000E+00
  0.00000000E+00  0.00000000E+00  0.00000000E+00
  0.00000000E+00  0.00000000E+00  0.00000000E+00
  0.00000000E+00  0.00000000E+00  0.00000000E+00
  0.00000000E+00  0.00000000E+00  0.00000000E+00
  0.00000000E+00  0.00000000E+00  0.00000000E+00
  0.00000000E+00  0.00000000E+00  0.00000000E+00
  0.00000000E+00  0.00000000E+00  0.00000000E+00
  0.00000000E+00  0.00000000E+00  0.00000000E+00
  0.00000000E+00  0.00000000E+00  0.00000000E+00
  0.00000000E+00  0.00000000E+00  0.00000000E+00
  0.00000000E+00  0.00000000E+00  0.00000000E+00
  0.00000000E+00  0.00000000E+00  0.00000000E+00
  0.00000000E+00  0.00000000E+00  0.00000000E+00
  0.00000000E+00  0.00000000E+00  0.00000000E+00
  0.00000000E+00  0.00000000E+00  0.00000000E+00
  0.00000000E+00  0.00000000E+00  0.00000000E+00
  0.00000000E+00  0.00000000E+00  0.00000000E+00
  0.00000000E+00  0.00000000E+00  0.00000000E+00
  0.00000000E+00  0.00000000E+00  0.00000000E+00
  0.00000000E+00  0.00000000E+00  0.00000000E+00
  0.00000000E+00  0.00000000E+00  0.00000000E+00
  0.00000000E+00  0.00000000E+00  0.00000000E+00
  0.00000000E+00  0.00000000E+00  0.00000000E+00
  0.00000000E+00  0.00000000E+00  0.00000000E+00
  0.00000000E+00  0.00000000E+00  0.00000000E+00
  0.00000000E+00  0.00000000E+00  0.00000000E+00
  0.00000000E+00  0.00000000E+00  0.00000000E+00
  0.00000000E+00  0.00000000E+00  0.00000000E+00
  0.00000000E+00  0.00000000E+00  0.00000000E+00
  0.00000000E+00  0.00000000E+00  0.00000000E+00
  0.00000000E+00  0.00000000E+00  0.00000000E+00
  0.00000000E+00  0.00000000E+00  0.00000000E+00
  0.00000000E+00  0.00000000E+00  0.00000000E+00
  0.00000000E+00  0.00000000E+00  0.00000000E+00
  0.00000000E+00  0.00000000E+00  0.00000000E+00
  0.00000000E+00  0.00000000E+00  0.00000000E+00
  0.00000000E+00  0.00000000E+00  0.00000000E+00
  0.00000000E+00  0.00000000E+00  0.00000000E+00
  0.00000000E+00  0.00000000E+00  0.00000000E+00
  0.00000000E+00  0.00000000E+00  0.00000000E+00
  0.00000000E+00  0.00000000E+00  0.00000000E+00
  0.00000000E+00  0.00000000E+00  0.00000000E+00
  0.00000000E+00  0.00000000E+00  0.00000000E+00
  0.00000000E+00  0.00000000E+00  0.00000000E+00
  0.00000000E+00  0.00000000E+00  0.00000000E+00
  0.00000000E+00  0.00000000E+00  0.00000000E+00
  0.00000000E+00  0.00000000E+00  0.00000000E+00
  0.00000000E+00  0.00000000E+00  0.00000000E+00
  0.00000000E+00  0.00000000E+00  0.00000000E+00
  0.00000000E+00  0.00000000E+00  0.00000000E+00
  0.00000000E+00  0.00000000E+00  0.00000000E+00
  0.00000000E+00  0.00000000E+00  0.00000000E+00
  0.00000000E+00  0.00000000E+00  0.00000000E+00
  0.00000000E+00  0.00000000E+00  0.00000000E+00
  0.00000000E+00  0.00000000E+00  0.00000000E+00
  0.00000000E+00  0.00000000E+00  0.00000000E+00
  0.00000000E+00  0.00000000E+00  0.00000000E+00
  0.00000000E+00  0.00000000E+00  0.00000000E+00
