18-TiZrNbTaW                            
   1.00000000000000     
     8.9151205299171181   -0.0048157629844795    0.0053143375573880
    -0.0047861709972492    8.9492192526331795   -0.0081047755196902
     0.0052929752357477   -0.0081131590140041    8.8762875545630369
  Ti              Ta              Nb              N               C               Zr              W             
     7     6     6    13    19     7     6
Direct
  0.9985272712554666  0.9970864216805294  0.0102474026748372
  0.2420828616962449  0.9957528133654985  0.2499746535416300
  0.2622669271109408  0.4995720108028985  0.2518426786502401
  0.4999583146304670  0.4971661603015546  0.9989935354774504
  0.4962101968210332  0.2577239824939709  0.7554061281969910
  0.0089395985533793  0.4952125854644971  0.4962268419011404
  0.5030165612382725  0.7405418783557334  0.7498854537168578
  0.0036851507121036  0.2430425350344790  0.2582140368933400
  0.7582334020021377  0.7474776377967528  0.0019463187437057
  0.0043955340316497  0.2619833147412310  0.7439178141022631
  0.7545080479980723  0.2689518408550448  0.4990591541476870
  0.9957702131021245  0.7359562360457150  0.7442090087404220
  0.2578561820668412  0.4996573856138463  0.7498515012197523
  0.2592604119566675  0.2566381127023755  0.9953590676183924
  0.5035376350626617  0.2590972251984696  0.2446880179636328
  0.7587431261863796  0.9940700907206743  0.2463396371205687
  0.7381240557701025  0.2491407225707459  0.0065850191335177
  0.2366207455369055  0.7433538656550719  0.0009794974953027
  0.2415055788394622  0.2488500441616121  0.5057229389549859
  0.2488458575689617  0.2502961720451939  0.2494830390831364
  0.2443182144238363  0.0010144316520848  0.0080966795709089
  0.9987379865413812  0.2412950076790425  0.0002044990410255
  0.7548698249603570  0.2491315065707703  0.2547276281683262
  0.7563483279115722  0.9969746001093470  0.9990506634286230
  0.4991877244170330  0.0057512708405791  0.2487939130302168
  0.9998876287689910  0.4941031025475286  0.2575142321550996
  0.5027486288155624  0.7469201505804112  0.9923277524430587
  0.9985907809428046  0.0039088576608172  0.7520419484129539
  0.7490109383913930  0.2521751043916708  0.7480747112929035
  0.7560738960374153  0.0070708913715220  0.4964241924104826
  0.5049697237735273  0.2540157215321876  0.5036195452336755
  0.5019641112247420  0.0025649846048080  0.7506090657840588
  0.0058189673922757  0.0025873519147008  0.2458410485702448
  0.4989014116839126  0.2575727554173348  0.9952671155656341
  0.2424474209470810  0.7485176005105945  0.2459473782954846
  0.2545274917990043  0.5011065333453710  0.0034191730293544
  0.9978370906696170  0.7547148686125805  0.0007323316171419
  0.7549320550033123  0.7415736538537779  0.2526644681913222
  0.7416587736495304  0.4998140324780833  0.0005437772991642
  0.4931346908125516  0.4996393053679800  0.2468135725379896
  0.2520586723953236  0.2535686158212308  0.7501589034706703
  0.2466051602524294  0.0026148926170147  0.4928694026940135
  0.9972321917355620  0.2530587558536971  0.5018720212382070
  0.2506801625595744  0.7456056061051164  0.7553982942359999
  0.2537163503728178  0.4945996394708300  0.4960846033997025
  0.9917352254352698  0.7554685887456069  0.4996822015967394
  0.9988320827989799  0.4985298667779434  0.7448181446317560
  0.7458536440938096  0.7449080042945034  0.7495438131627631
  0.7569371491669802  0.5000240956180505  0.4980390055588062
  0.5060419004867807  0.7454706909452654  0.5068944311890926
  0.5011947955293564  0.4995018533295277  0.7499619713037480
  0.4997108024214044  0.0033722122473922  0.0005942142345630
  0.9981738973995549  0.4970903784234626  0.0063886241920141
  0.4981806383005594  0.7474754291309216  0.2483669912086558
  0.2463383991512255  0.9993730872009313  0.7535218527617474
  0.4968837109771437  0.0009645382724526  0.4988716454179485
  0.7527120338144310  0.9946602086920147  0.7475962553947217
  0.2484015804105663  0.7484101617306312  0.5004285143575878
  0.9989466462671643  0.7679813749346850  0.2559664004550719
  0.7275582350397859  0.4990751547324792  0.2420655274091340
  0.0116104978878872  0.0089155374696805  0.4848413464122054
  0.5023998641760221  0.5053416368267354  0.4977438114582546
  0.7409001585014123  0.5068191716135462  0.7581906245034531
  0.7492435125202469  0.7251484044992363  0.4984566302596907
 
  0.00000000E+00  0.00000000E+00  0.00000000E+00
  0.00000000E+00  0.00000000E+00  0.00000000E+00
  0.00000000E+00  0.00000000E+00  0.00000000E+00
  0.00000000E+00  0.00000000E+00  0.00000000E+00
  0.00000000E+00  0.00000000E+00  0.00000000E+00
  0.00000000E+00  0.00000000E+00  0.00000000E+00
  0.00000000E+00  0.00000000E+00  0.00000000E+00
  0.00000000E+00  0.00000000E+00  0.00000000E+00
  0.00000000E+00  0.00000000E+00  0.00000000E+00
  0.00000000E+00  0.00000000E+00  0.00000000E+00
  0.00000000E+00  0.00000000E+00  0.00000000E+00
  0.00000000E+00  0.00000000E+00  0.00000000E+00
  0.00000000E+00  0.00000000E+00  0.00000000E+00
  0.00000000E+00  0.00000000E+00  0.00000000E+00
  0.00000000E+00  0.00000000E+00  0.00000000E+00
  0.00000000E+00  0.00000000E+00  0.00000000E+00
  0.00000000E+00  0.00000000E+00  0.00000000E+00
  0.00000000E+00  0.00000000E+00  0.00000000E+00
  0.00000000E+00  0.00000000E+00  0.00000000E+00
  0.00000000E+00  0.00000000E+00  0.00000000E+00
  0.00000000E+00  0.00000000E+00  0.00000000E+00
  0.00000000E+00  0.00000000E+00  0.00000000E+00
  0.00000000E+00  0.00000000E+00  0.00000000E+00
  0.00000000E+00  0.00000000E+00  0.00000000E+00
  0.00000000E+00  0.00000000E+00  0.00000000E+00
  0.00000000E+00  0.00000000E+00  0.00000000E+00
  0.00000000E+00  0.00000000E+00  0.00000000E+00
  0.00000000E+00  0.00000000E+00  0.00000000E+00
  0.00000000E+00  0.00000000E+00  0.00000000E+00
  0.00000000E+00  0.00000000E+00  0.00000000E+00
  0.00000000E+00  0.00000000E+00  0.00000000E+00
  0.00000000E+00  0.00000000E+00  0.00000000E+00
  0.00000000E+00  0.00000000E+00  0.00000000E+00
  0.00000000E+00  0.00000000E+00  0.00000000E+00
  0.00000000E+00  0.00000000E+00  0.00000000E+00
  0.00000000E+00  0.00000000E+00  0.00000000E+00
  0.00000000E+00  0.00000000E+00  0.00000000E+00
  0.00000000E+00  0.00000000E+00  0.00000000E+00
  0.00000000E+00  0.00000000E+00  0.00000000E+00
  0.00000000E+00  0.00000000E+00  0.00000000E+00
  0.00000000E+00  0.00000000E+00  0.00000000E+00
  0.00000000E+00  0.00000000E+00  0.00000000E+00
  0.00000000E+00  0.00000000E+00  0.00000000E+00
  0.00000000E+00  0.00000000E+00  0.00000000E+00
  0.00000000E+00  0.00000000E+00  0.00000000E+00
  0.00000000E+00  0.00000000E+00  0.00000000E+00
  0.00000000E+00  0.00000000E+00  0.00000000E+00
  0.00000000E+00  0.00000000E+00  0.00000000E+00
  0.00000000E+00  0.00000000E+00  0.00000000E+00
  0.00000000E+00  0.00000000E+00  0.00000000E+00
  0.00000000E+00  0.00000000E+00  0.00000000E+00
  0.00000000E+00  0.00000000E+00  0.00000000E+00
  0.00000000E+00  0.00000000E+00  0.00000000E+00
  0.00000000E+00  0.00000000E+00  0.00000000E+00
  0.00000000E+00  0.00000000E+00  0.00000000E+00
  0.00000000E+00  0.00000000E+00  0.00000000E+00
  0.00000000E+00  0.00000000E+00  0.00000000E+00
  0.00000000E+00  0.00000000E+00  0.00000000E+00
  0.00000000E+00  0.00000000E+00  0.00000000E+00
  0.00000000E+00  0.00000000E+00  0.00000000E+00
  0.00000000E+00  0.00000000E+00  0.00000000E+00
  0.00000000E+00  0.00000000E+00  0.00000000E+00
  0.00000000E+00  0.00000000E+00  0.00000000E+00
  0.00000000E+00  0.00000000E+00  0.00000000E+00
