18-TiZrNbTaW                            
   1.00000000000000     
     8.9142633389430515    0.0036959008777622   -0.0006665552694595
     0.0036959063754589    8.9245367982362680   -0.0001657987417956
    -0.0006665551116323   -0.0001658037780245    8.9125474280795416
   Ti   Ta   Nb   N    C    Zr   W 
     7     6     6    13    19     7     6
Direct
 -0.0001456454970056 -0.0006974327716427  0.0011053333567668
  0.2489602372805016 -0.0005253908652732  0.2507829774553445
  0.2509626529648726  0.5006104176929025  0.2500666537639690
  0.5001690192748989  0.4989280195594621  0.0000258270228906
  0.4993113733917903  0.2514284637576290  0.7506930753422478
  0.0000512632421003  0.5000475456843376  0.5005245167475433
  0.5001990996645095  0.7485854585389273  0.7490334530274988
 -0.0001927835718962  0.2485475922628758  0.2515493312203866
  0.7515867830492392  0.7484611233756605  0.0000980405847763
  0.0010106594651137  0.2513749434237347  0.7485050887476900
  0.7513772507985490  0.2515718321097511  0.4996697523077897
 -0.0001336792353897  0.7486199450856172  0.7498196751160591
  0.2504274863227527  0.4998809983100347  0.7499637369471518
  0.2512065452473266  0.2514337651077216 -0.0010350463744765
  0.5003576743533972  0.2515863765267665  0.2491059400342993
  0.7514372556869466 -0.0010264982695693  0.2502503571454415
  0.7487538272085807  0.2514505898548420  0.0003729440721003
  0.2483226324016862  0.7484850819966277  0.0001487833351385
  0.2487806806206092  0.2502551879226780  0.5010575908439476
  0.2492532351889460  0.2499082687673766  0.2500624098918139
  0.2510577770870693  0.0000122285369230 -0.0008248693225488
 -0.0001050194883939  0.2507531344792222  0.0000409652798998
  0.7506873528740209  0.2500105410359092  0.2507484994270046
  0.7490390944323122 -0.0005427608862866 -0.0004488403073622
  0.5004784743074063 -0.0002429861349331  0.2497722819642973
 -0.0005899495693638  0.4991825539870828  0.2491569400033659
  0.5007607371514123  0.7511752690080875  0.0008075048111976
 -0.0001967330176829  0.0001423699907963  0.7496680971553085
  0.7510545070295277  0.2494217623239018  0.7492411064727500
  0.7496875143525105  0.0007036269457488  0.5003850726974901
  0.5008165636403540  0.2496136173788680  0.4994722116718908
  0.5002785985129682  0.0000428488069449  0.7501744000110603
 -0.0007565135027368  0.0003986429175254  0.2510701628766234
  0.5001210568393788  0.2490998099852125  0.0008587856392279
  0.2495314558137472  0.7500190559896550  0.2496809718515903
  0.2493403214751946  0.5000402601754683 -0.0011363748019113
 -0.0007314858159730  0.7495757623817517 -0.0002528720060526
  0.7505219888455182  0.7495535116966069  0.2498330287356894
  0.7505347298766801  0.5005710797324183  0.0000768882637256
  0.5011840592529566  0.4995799327855520  0.2510286359985869
  0.2485984971503033  0.2504589554477411  0.7499301341306497
  0.2497300450447681  0.0003584327403097  0.5005662242054616
 -0.0008579944298756  0.2490363332238677  0.4998837268253201
  0.2488159301777963  0.7495553364003793  0.7502482180000760
  0.2509926762203500  0.4995812129553990  0.5011704273622161
 -0.0007971641063295  0.7509925652363199  0.5002152239219111
  0.0002043979532421  0.4998431158425927  0.7504848037151607
  0.7510640111746777  0.7497076395911991  0.7502228637566676
  0.7489854394212011  0.4996872516740145  0.4999377067542515
  0.5007276958191056  0.7496445055102327  0.4995209019868800
  0.4997784881803832  0.4999741683766572  0.7488724815992382
  0.5000761170878134  0.0010988666064708  0.0005140681000043
 -0.0001863521731085  0.5005245719195712 -0.0001650203804086
  0.5001020638984500  0.7488598047056935  0.2507546095900814
  0.2493598791831788  0.0000929634205170  0.7493919714137061
  0.4992011154743169 -0.0006377697903856  0.4995654872861180
  0.7506220976535583 -0.0009078826203526  0.7497393785695098
  0.2497192687917847  0.7497727264090013  0.4999006155246608
 -0.0001461869857856  0.7517519522176493  0.2500432425228185
  0.7483783959295307  0.5013837677412477  0.2499005006590640
  0.0011152393519445  0.0002289391924554  0.4984009604598790
  0.5001272724988217  0.5010372123236049  0.4998429677163456
  0.7497254143042879  0.5014690194266442  0.7500917867795863
  0.7502542264252052  0.7484504342423103  0.4998143544906455
 
  0.00000000E+00  0.00000000E+00  0.00000000E+00
  0.00000000E+00  0.00000000E+00  0.00000000E+00
  0.00000000E+00  0.00000000E+00  0.00000000E+00
  0.00000000E+00  0.00000000E+00  0.00000000E+00
  0.00000000E+00  0.00000000E+00  0.00000000E+00
  0.00000000E+00  0.00000000E+00  0.00000000E+00
  0.00000000E+00  0.00000000E+00  0.00000000E+00
  0.00000000E+00  0.00000000E+00  0.00000000E+00
  0.00000000E+00  0.00000000E+00  0.00000000E+00
  0.00000000E+00  0.00000000E+00  0.00000000E+00
  0.00000000E+00  0.00000000E+00  0.00000000E+00
  0.00000000E+00  0.00000000E+00  0.00000000E+00
  0.00000000E+00  0.00000000E+00  0.00000000E+00
  0.00000000E+00  0.00000000E+00  0.00000000E+00
  0.00000000E+00  0.00000000E+00  0.00000000E+00
  0.00000000E+00  0.00000000E+00  0.00000000E+00
  0.00000000E+00  0.00000000E+00  0.00000000E+00
  0.00000000E+00  0.00000000E+00  0.00000000E+00
  0.00000000E+00  0.00000000E+00  0.00000000E+00
  0.00000000E+00  0.00000000E+00  0.00000000E+00
  0.00000000E+00  0.00000000E+00  0.00000000E+00
  0.00000000E+00  0.00000000E+00  0.00000000E+00
  0.00000000E+00  0.00000000E+00  0.00000000E+00
  0.00000000E+00  0.00000000E+00  0.00000000E+00
  0.00000000E+00  0.00000000E+00  0.00000000E+00
  0.00000000E+00  0.00000000E+00  0.00000000E+00
  0.00000000E+00  0.00000000E+00  0.00000000E+00
  0.00000000E+00  0.00000000E+00  0.00000000E+00
  0.00000000E+00  0.00000000E+00  0.00000000E+00
  0.00000000E+00  0.00000000E+00  0.00000000E+00
  0.00000000E+00  0.00000000E+00  0.00000000E+00
  0.00000000E+00  0.00000000E+00  0.00000000E+00
  0.00000000E+00  0.00000000E+00  0.00000000E+00
  0.00000000E+00  0.00000000E+00  0.00000000E+00
  0.00000000E+00  0.00000000E+00  0.00000000E+00
  0.00000000E+00  0.00000000E+00  0.00000000E+00
  0.00000000E+00  0.00000000E+00  0.00000000E+00
  0.00000000E+00  0.00000000E+00  0.00000000E+00
  0.00000000E+00  0.00000000E+00  0.00000000E+00
  0.00000000E+00  0.00000000E+00  0.00000000E+00
  0.00000000E+00  0.00000000E+00  0.00000000E+00
  0.00000000E+00  0.00000000E+00  0.00000000E+00
  0.00000000E+00  0.00000000E+00  0.00000000E+00
  0.00000000E+00  0.00000000E+00  0.00000000E+00
  0.00000000E+00  0.00000000E+00  0.00000000E+00
  0.00000000E+00  0.00000000E+00  0.00000000E+00
  0.00000000E+00  0.00000000E+00  0.00000000E+00
  0.00000000E+00  0.00000000E+00  0.00000000E+00
  0.00000000E+00  0.00000000E+00  0.00000000E+00
  0.00000000E+00  0.00000000E+00  0.00000000E+00
  0.00000000E+00  0.00000000E+00  0.00000000E+00
  0.00000000E+00  0.00000000E+00  0.00000000E+00
  0.00000000E+00  0.00000000E+00  0.00000000E+00
  0.00000000E+00  0.00000000E+00  0.00000000E+00
  0.00000000E+00  0.00000000E+00  0.00000000E+00
  0.00000000E+00  0.00000000E+00  0.00000000E+00
  0.00000000E+00  0.00000000E+00  0.00000000E+00
  0.00000000E+00  0.00000000E+00  0.00000000E+00
  0.00000000E+00  0.00000000E+00  0.00000000E+00
  0.00000000E+00  0.00000000E+00  0.00000000E+00
  0.00000000E+00  0.00000000E+00  0.00000000E+00
  0.00000000E+00  0.00000000E+00  0.00000000E+00
  0.00000000E+00  0.00000000E+00  0.00000000E+00
  0.00000000E+00  0.00000000E+00  0.00000000E+00
