26-TiHfVMoW                             
   1.00000000000000     
     8.7476340723537689    0.0008190238898073    0.0356337908908896
     0.0008234871240351    8.8302245213167865   -0.0064540108215590
     0.0355416423721103   -0.0063441807718925    8.7370234203199555
   Ti   Mo   Hf   N    C    W    V 
     7     6     7    13    19     6     6
Direct
 -0.0067502957815624 -0.0124583834883929  0.0048515386100324
  0.2463940855857803 -0.0053191584778218  0.2552499699071341
  0.2560523155415912  0.5077609751720850  0.2488493998702767
  0.5003563803510981  0.4919855681166132 -0.0046286306655339
  0.4948532871102226  0.2482555123782534  0.7497345182800106
 -0.0022384872519735  0.5001936922108261  0.4858161404772641
  0.5032729818077460  0.7472581286201335  0.7409691545781666
 -0.0063219844004422  0.2301651781170982  0.2682406500382176
  0.7644751668814348  0.7450270380436947 -0.0086709026071550
  0.0157210776894179  0.2744776176207622  0.7447820209454842
  0.7578843102587167  0.2750145349040745  0.4933809900447634
 -0.0089886552847947  0.7315658991792965  0.7549521140089324
  0.2614908185340721  0.5045341831583514  0.7493396016480143
  0.2445068426488128  0.2481445890882963  0.0004719273758014
  0.5035996175173001  0.2558687789903717  0.2511241027718105
  0.7502282123598433 -0.0058010740633837  0.2653017790334516
  0.7565945534396986  0.2567736475820489 -0.0116111150123675
  0.2568606726252700  0.7536261366157223  0.0012823366388963
  0.2514054931623782  0.2531319163499792  0.5017681639978709
  0.2422905376951706  0.7484058499612340  0.5008764691658847
  0.2506444454183334  0.2461781643959050  0.2515370313088112
  0.2537598226984440  0.0012528733927922  0.0003703779072258
  0.0004874119884873  0.2467735059401274  0.0061491217120671
  0.7522063521502683  0.2525218102232402  0.2479304848644334
  0.7568886492199491  0.0007302258309310  0.0084314703746192
  0.4972504521339538 -0.0028047515606454  0.2466939416534331
 -0.0013955403624983  0.4929599367599174  0.2472929933917274
  0.5060079193153020  0.7570604693221733  0.0007954439053172
 -0.0081972011031279  0.0062186815892070  0.7491391711712994
  0.7486617492097343  0.2463361531597401  0.7420862526640344
  0.7428893321665093 -0.0001633486133314  0.5108574984120531
  0.5048278914454822  0.2423044814402159  0.5027678730998860
  0.4991372805321126 -0.0016305211163107  0.7437176406655790
  0.0027235782940374 -0.0076050505996244  0.2539686918769120
  0.5022622766106410  0.2544088156779569 -0.0050407974970812
  0.2521296981825720  0.7508941989401073  0.2505297329625559
  0.2489840700515930  0.5012006616638934  0.0041750298751159
  0.0032033359959783  0.7520274149441205  0.0092030084214391
  0.7546125638931344  0.7400917317664674  0.2511380453037997
  0.7501643386882723  0.5068044130288544 -0.0035865616650766
  0.5024825225393468  0.5036254564099447  0.2511633596711280
  0.2564219007475761  0.2477170050597923  0.7508694081655659
  0.2425222611718276 -0.0001562544152238  0.4970804503850176
 -0.0043842499641129  0.2499734913892981  0.5081392175809240
  0.2507882314632826  0.7530930260012879  0.7506874488217984
  0.2529803431738116  0.5006897366785317  0.4952561038941469
 -0.0119442048093386  0.7517207313079916  0.4984302883604654
 -0.0053835938392483  0.5019839771045954  0.7492656295075019
  0.7437684714204330  0.7424775760717184  0.7397655833877249
  0.7495563884719266  0.5055619886514561  0.4985349439060627
  0.5047649194911268  0.7466651364667281  0.5021522457366540
  0.5036227260247972  0.5005658108057777  0.7450522479859089
  0.5154237090211979  0.0150478116586570 -0.0168970868201524
 -0.0018919190045457  0.5154466109081697  0.0065301754645523
  0.5076549925314007  0.7387238097292113  0.2624374420402704
  0.2292209144848031 -0.0065239875493208  0.7417347828585128
  0.4815630687033032 -0.0124530500088461  0.5076240521936772
  0.7493669493895998 -0.0220864878879338  0.7622068048641589
 -0.0036323283635711  0.7685753217062614  0.2557506184606219
  0.7379157872695752  0.5071812937994967  0.2540284787675277
  0.0146639484954110  0.0024893748166196  0.4944527039161405
  0.4996347331563376  0.5162695881459419  0.4993313781608004
  0.7286624070379898  0.5145866942000676  0.7426248940373846
  0.7572873363681683  0.7246555146848553  0.4935428211385547
 
  0.00000000E+00  0.00000000E+00  0.00000000E+00
  0.00000000E+00  0.00000000E+00  0.00000000E+00
  0.00000000E+00  0.00000000E+00  0.00000000E+00
  0.00000000E+00  0.00000000E+00  0.00000000E+00
  0.00000000E+00  0.00000000E+00  0.00000000E+00
  0.00000000E+00  0.00000000E+00  0.00000000E+00
  0.00000000E+00  0.00000000E+00  0.00000000E+00
  0.00000000E+00  0.00000000E+00  0.00000000E+00
  0.00000000E+00  0.00000000E+00  0.00000000E+00
  0.00000000E+00  0.00000000E+00  0.00000000E+00
  0.00000000E+00  0.00000000E+00  0.00000000E+00
  0.00000000E+00  0.00000000E+00  0.00000000E+00
  0.00000000E+00  0.00000000E+00  0.00000000E+00
  0.00000000E+00  0.00000000E+00  0.00000000E+00
  0.00000000E+00  0.00000000E+00  0.00000000E+00
  0.00000000E+00  0.00000000E+00  0.00000000E+00
  0.00000000E+00  0.00000000E+00  0.00000000E+00
  0.00000000E+00  0.00000000E+00  0.00000000E+00
  0.00000000E+00  0.00000000E+00  0.00000000E+00
  0.00000000E+00  0.00000000E+00  0.00000000E+00
  0.00000000E+00  0.00000000E+00  0.00000000E+00
  0.00000000E+00  0.00000000E+00  0.00000000E+00
  0.00000000E+00  0.00000000E+00  0.00000000E+00
  0.00000000E+00  0.00000000E+00  0.00000000E+00
  0.00000000E+00  0.00000000E+00  0.00000000E+00
  0.00000000E+00  0.00000000E+00  0.00000000E+00
  0.00000000E+00  0.00000000E+00  0.00000000E+00
  0.00000000E+00  0.00000000E+00  0.00000000E+00
  0.00000000E+00  0.00000000E+00  0.00000000E+00
  0.00000000E+00  0.00000000E+00  0.00000000E+00
  0.00000000E+00  0.00000000E+00  0.00000000E+00
  0.00000000E+00  0.00000000E+00  0.00000000E+00
  0.00000000E+00  0.00000000E+00  0.00000000E+00
  0.00000000E+00  0.00000000E+00  0.00000000E+00
  0.00000000E+00  0.00000000E+00  0.00000000E+00
  0.00000000E+00  0.00000000E+00  0.00000000E+00
  0.00000000E+00  0.00000000E+00  0.00000000E+00
  0.00000000E+00  0.00000000E+00  0.00000000E+00
  0.00000000E+00  0.00000000E+00  0.00000000E+00
  0.00000000E+00  0.00000000E+00  0.00000000E+00
  0.00000000E+00  0.00000000E+00  0.00000000E+00
  0.00000000E+00  0.00000000E+00  0.00000000E+00
  0.00000000E+00  0.00000000E+00  0.00000000E+00
  0.00000000E+00  0.00000000E+00  0.00000000E+00
  0.00000000E+00  0.00000000E+00  0.00000000E+00
  0.00000000E+00  0.00000000E+00  0.00000000E+00
  0.00000000E+00  0.00000000E+00  0.00000000E+00
  0.00000000E+00  0.00000000E+00  0.00000000E+00
  0.00000000E+00  0.00000000E+00  0.00000000E+00
  0.00000000E+00  0.00000000E+00  0.00000000E+00
  0.00000000E+00  0.00000000E+00  0.00000000E+00
  0.00000000E+00  0.00000000E+00  0.00000000E+00
  0.00000000E+00  0.00000000E+00  0.00000000E+00
  0.00000000E+00  0.00000000E+00  0.00000000E+00
  0.00000000E+00  0.00000000E+00  0.00000000E+00
  0.00000000E+00  0.00000000E+00  0.00000000E+00
  0.00000000E+00  0.00000000E+00  0.00000000E+00
  0.00000000E+00  0.00000000E+00  0.00000000E+00
  0.00000000E+00  0.00000000E+00  0.00000000E+00
  0.00000000E+00  0.00000000E+00  0.00000000E+00
  0.00000000E+00  0.00000000E+00  0.00000000E+00
  0.00000000E+00  0.00000000E+00  0.00000000E+00
  0.00000000E+00  0.00000000E+00  0.00000000E+00
  0.00000000E+00  0.00000000E+00  0.00000000E+00
