55-HfNbTaMoW                            
   1.00000000000000     
     8.9059926925503294    0.0055094370148991    0.0073269908318786
     0.0114792398568993    8.9169769227712834   -0.0058428914785559
     0.0393387414341987   -0.0211699586130544    8.9288952010564717
   Hf   Ta   Nb   N    C    W    Mo
     7     6     7    13    19     6     6
Direct
  0.0001783339337214 -0.0001216746665953  0.9987966899651590
  0.2559638789359762  0.9997664873799099  0.2476721001853987
  0.2469750193430476  0.4973826248356848  0.2507497971041731
  0.5036173075699617  0.4992229781047712  0.9985701136491949
  0.5003445047163755  0.2483449063018003  0.7447085045063789
 -0.0034335492373899  0.5044818572505217  0.4987656591988592
  0.4987628795264912  0.7565038693256931  0.7508458319578041
  0.9922267194508231  0.2381989615610026  0.2598221472123829
  0.7616720801333483  0.7410428674858360  0.0063744311053061
  0.0005691254394396  0.2611763341100868  0.7458265857065786
  0.7525593171652669  0.2554690164590294  0.4939451045992517
 -0.0021720775456721  0.7441524994915013  0.7493616656750870
  0.2540891417649173  0.5013901100652982  0.7449837153115945
  0.2535741212632513  0.2611830672534591  0.9901781127554988
  0.5105060914769360  0.2496551633054390  0.2434249362776666
  0.7444375505757133  0.9882754758338081  0.2742305688374346
  0.7383270544225830  0.2425444824754683  0.9942943592594802
  0.2365880094790212  0.7395946294659007  0.0026858128571183
  0.2386802607275957  0.2459710771578550  0.5058794301198050
  0.2483074693794288  0.7566849043713009  0.4985464761905864
  0.2474774115144849  0.2481023599759311  0.2473305682407316
  0.2555234545739706  0.0008420258542630  0.9936246048549853
 -0.0031114216943371  0.2488733382278169  0.0006761857023471
  0.7536274207313269  0.2449951808857579  0.2464125063150569
  0.7535805219365593  0.9900107195186747  0.0215864427560151
  0.5013126321441218  0.9868391541753266  0.2297809768643092
 -0.0009583912183982  0.4874641791974686  0.2473735121221538
  0.5044543171427529  0.7564519660069791  0.0031323431013123
  0.9866368523947514  0.0041166236323366  0.7484145297247887
  0.7513093121011246  0.2453790794620077  0.7446466870499717
  0.7486976095593210  0.0053174328481053  0.5279492560650858
  0.5029346526510026  0.2420803967566921  0.4965483386719370
  0.4906081100402663  0.0023993521446733  0.7406263951327092
 -0.0010018852077238  0.0041700360734675  0.2535549317341112
  0.4954349599035319  0.2516650274099034 -0.0048059577993498
  0.2549852952403750  0.7494093657123999  0.2481796966752476
  0.2477605684070207  0.4989393024354781  0.9971154381979617
  0.9979388223622522  0.7465829999629444  0.0042569947499248
  0.7535878215613795  0.7404370306397012  0.2511091969340825
  0.7575871655385781  0.4926170266791128  0.0127911967146794
  0.4941190522301724  0.4975170893399399  0.2498037403380139
  0.2465139297956520  0.2505894038041810  0.7487605536281048
  0.2695811899063707  0.0022861174504163  0.5001137155827373
  0.9953650333697144  0.2507955775281360  0.5024867242198461
  0.2449405961898658  0.7559913927912093  0.7521308046671252
  0.2541009032938702  0.5000209228088470  0.5003167334305739
  0.9952132335844421  0.7582147881170767  0.5033260977277141
  0.0031268446178088  0.5027700260530202  0.7463137968430219
  0.7503199995829070  0.7546406483826776  0.7510253963425185
  0.7466706211095168  0.4969292187526422  0.5094657891443168
  0.4995058960369611  0.7554649909445796  0.5005222352239800
  0.5026575819174830  0.5035643610715148  0.7441236673873606
  0.5223877900083392  0.0142849266710647  0.9845697223044370
 -0.0020702739865000  0.5049005849744224  0.9835118128563137
  0.5011585507198205  0.7383135523176815  0.2635819843615649
  0.2340579713374397  0.0038679341306215  0.7333207466835181
  0.5140699503560648  0.9935930143386765  0.4727584602324222
  0.7372793031858910  0.9886773414380183  0.7745703948747535
  0.0028669336297195  0.7746033037419120  0.2590891529234186
  0.7281746189316943  0.5055745935045756  0.2617915714154657
  0.0212747988703978  0.0019150502592336  0.4990512668071758
  0.5077240235869780  0.5183606696462856  0.4898178911490698
  0.7547293045251072  0.5159211618639661  0.7664651945328012
  0.7460740549970669  0.7335908459024961  0.4931167970409450
 
  0.00000000E+00  0.00000000E+00  0.00000000E+00
  0.00000000E+00  0.00000000E+00  0.00000000E+00
  0.00000000E+00  0.00000000E+00  0.00000000E+00
  0.00000000E+00  0.00000000E+00  0.00000000E+00
  0.00000000E+00  0.00000000E+00  0.00000000E+00
  0.00000000E+00  0.00000000E+00  0.00000000E+00
  0.00000000E+00  0.00000000E+00  0.00000000E+00
  0.00000000E+00  0.00000000E+00  0.00000000E+00
  0.00000000E+00  0.00000000E+00  0.00000000E+00
  0.00000000E+00  0.00000000E+00  0.00000000E+00
  0.00000000E+00  0.00000000E+00  0.00000000E+00
  0.00000000E+00  0.00000000E+00  0.00000000E+00
  0.00000000E+00  0.00000000E+00  0.00000000E+00
  0.00000000E+00  0.00000000E+00  0.00000000E+00
  0.00000000E+00  0.00000000E+00  0.00000000E+00
  0.00000000E+00  0.00000000E+00  0.00000000E+00
  0.00000000E+00  0.00000000E+00  0.00000000E+00
  0.00000000E+00  0.00000000E+00  0.00000000E+00
  0.00000000E+00  0.00000000E+00  0.00000000E+00
  0.00000000E+00  0.00000000E+00  0.00000000E+00
  0.00000000E+00  0.00000000E+00  0.00000000E+00
  0.00000000E+00  0.00000000E+00  0.00000000E+00
  0.00000000E+00  0.00000000E+00  0.00000000E+00
  0.00000000E+00  0.00000000E+00  0.00000000E+00
  0.00000000E+00  0.00000000E+00  0.00000000E+00
  0.00000000E+00  0.00000000E+00  0.00000000E+00
  0.00000000E+00  0.00000000E+00  0.00000000E+00
  0.00000000E+00  0.00000000E+00  0.00000000E+00
  0.00000000E+00  0.00000000E+00  0.00000000E+00
  0.00000000E+00  0.00000000E+00  0.00000000E+00
  0.00000000E+00  0.00000000E+00  0.00000000E+00
  0.00000000E+00  0.00000000E+00  0.00000000E+00
  0.00000000E+00  0.00000000E+00  0.00000000E+00
  0.00000000E+00  0.00000000E+00  0.00000000E+00
  0.00000000E+00  0.00000000E+00  0.00000000E+00
  0.00000000E+00  0.00000000E+00  0.00000000E+00
  0.00000000E+00  0.00000000E+00  0.00000000E+00
  0.00000000E+00  0.00000000E+00  0.00000000E+00
  0.00000000E+00  0.00000000E+00  0.00000000E+00
  0.00000000E+00  0.00000000E+00  0.00000000E+00
  0.00000000E+00  0.00000000E+00  0.00000000E+00
  0.00000000E+00  0.00000000E+00  0.00000000E+00
  0.00000000E+00  0.00000000E+00  0.00000000E+00
  0.00000000E+00  0.00000000E+00  0.00000000E+00
  0.00000000E+00  0.00000000E+00  0.00000000E+00
  0.00000000E+00  0.00000000E+00  0.00000000E+00
  0.00000000E+00  0.00000000E+00  0.00000000E+00
  0.00000000E+00  0.00000000E+00  0.00000000E+00
  0.00000000E+00  0.00000000E+00  0.00000000E+00
  0.00000000E+00  0.00000000E+00  0.00000000E+00
  0.00000000E+00  0.00000000E+00  0.00000000E+00
  0.00000000E+00  0.00000000E+00  0.00000000E+00
  0.00000000E+00  0.00000000E+00  0.00000000E+00
  0.00000000E+00  0.00000000E+00  0.00000000E+00
  0.00000000E+00  0.00000000E+00  0.00000000E+00
  0.00000000E+00  0.00000000E+00  0.00000000E+00
  0.00000000E+00  0.00000000E+00  0.00000000E+00
  0.00000000E+00  0.00000000E+00  0.00000000E+00
  0.00000000E+00  0.00000000E+00  0.00000000E+00
  0.00000000E+00  0.00000000E+00  0.00000000E+00
  0.00000000E+00  0.00000000E+00  0.00000000E+00
  0.00000000E+00  0.00000000E+00  0.00000000E+00
  0.00000000E+00  0.00000000E+00  0.00000000E+00
  0.00000000E+00  0.00000000E+00  0.00000000E+00
