TiZrHfVW                                
   1.00000000000000     
     8.8629424154984733   -0.0038405784616778    0.0056073007923612
    -0.0038229886774225    8.9502228612258463   -0.0054560237140613
     0.0056040489074194   -0.0054012325697776    8.8286904113350335
  Ti              W               Hf              N               C               Zr              V             
     7     6     6    13    19     7     6
Direct
  0.9968898556726188  0.9975725144592094  0.0111380389377445
  0.2417648775527817  0.9956860464257509  0.2535010034743396
  0.2602063623772388  0.5057457535353099  0.2517498616922463
  0.5000542501184018  0.5031948675262755  0.0011049846806796
  0.4915375856204375  0.2604042272283814  0.7496590954588118
  0.0010988291767005  0.4993947250617671  0.4884314615960084
  0.5079227686831849  0.7391380930831194  0.7477700240770555
  0.9938058831278731  0.2335672903682502  0.2670368108694314
  0.7609740438498908  0.7359500802132257  0.9985472794742399
  0.0138087437400273  0.2765184246812915  0.7378256985792272
  0.7559623515989510  0.2775662560375519  0.4972248721877429
  0.9884906336517686  0.7234643701622645  0.7392909773926065
  0.2667766548361335  0.5002541056324962  0.7485436195867723
  0.2467328300712285  0.2521168702916616  0.0027093018470481
  0.5040495821021809  0.2555896574989631  0.2513547760037990
  0.7560115169125265  0.9945257545287199  0.2560765163158852
  0.7510504159467598  0.2596670606607125  0.9914691096599425
  0.2419000225102287  0.7483076085243040  0.0010936646605388
  0.2511375870182799  0.2530398659707509  0.4990599314621426
  0.2463298562794126  0.2478382454412643  0.2514110040090713
  0.2442375486950852  0.0007861730640787  0.0068934368429144
  0.9991832710945376  0.2406189882728827  0.0023289905023287
  0.7530939494749908  0.2540780077074587  0.2512861015780248
  0.7561790834325649  0.0035835755784284  0.0006712935102169
  0.5012338976557615  0.0047756592076274  0.2492773497224521
  0.0009093271528641  0.4830619403767415  0.2582290170144085
  0.4995044281185047  0.7460445968507474  0.9937927395765479
  0.9979290539275969  0.0062436322381296  0.7522840836704331
  0.7510077055718827  0.2564947096780815  0.7432345935764992
  0.7563873789026710  0.0188698586853327  0.4978258901643933
  0.5058226330864753  0.2553623601079843  0.5041379317615161
  0.5040381718172097  0.0006495369353048  0.7500044270530066
  0.0031951626624070  0.9962320208392307  0.2520928841823197
  0.5008050234225344  0.2536144106262491  0.9966478624194773
  0.2400766595085524  0.7493500856260746  0.2491183924181610
  0.2550868719773735  0.4995645135931155  0.0023301251699160
  0.9937500592657103  0.7558616399544446  0.0018645792294157
  0.7605634995524180  0.7403137400628190  0.2517908869490868
  0.7429954948711838  0.5041610115246056  0.9999878733531457
  0.5027835321467071  0.4995177241189932  0.2521774425539540
  0.2513901148326460  0.2548817600180897  0.7502950532636290
  0.2412702115270373  0.0024034527892514  0.4936983425117878
  0.9972504522153075  0.2476187326718305  0.5042808768939904
  0.2480176826296160  0.7425678251894486  0.7521165240715665
  0.2543493719803620  0.4981718794491710  0.4991172818448319
  0.9881404620706266  0.7519279784804159  0.4967058747973299
  0.9973173492280110  0.5006012446003170  0.7416246957925803
  0.7473532242623662  0.7400703471689991  0.7474953031034288
  0.7503199613835007  0.5040942882135749  0.4991147772129553
  0.5086371415984530  0.7398609201852081  0.5067697151619016
  0.5032231824501227  0.4997462871056709  0.7481017059450348
  0.5010733336919847  0.0003832411863645  0.9964720635346506
  0.9980084055583169  0.5009998271646167  0.0113822297353064
  0.5029851471757842  0.7465920803498688  0.2511310518408721
  0.2398411779841940  0.9973658948979689  0.7492322897435389
  0.4984758221413911  0.9937559375018106  0.5028416372050116
  0.7604018219885418  0.9930903374307695  0.7411626854350524
  0.2445769933965357  0.7456942739598014  0.5005167805987776
  0.9977087838120035  0.7732580979845131  0.2622151241329200
  0.7336732261281433  0.5089930218413324  0.2465644680947721
  0.0072296891948028  0.9973205654476635  0.4840152649470972
  0.5006523117872500  0.5066410650286779  0.4988679012705872
  0.7296229717633546  0.5075012707269243  0.7541413638122864
  0.7531944300160619  0.7177343402281675  0.5011637278366109
 
  0.00000000E+00  0.00000000E+00  0.00000000E+00
  0.00000000E+00  0.00000000E+00  0.00000000E+00
  0.00000000E+00  0.00000000E+00  0.00000000E+00
  0.00000000E+00  0.00000000E+00  0.00000000E+00
  0.00000000E+00  0.00000000E+00  0.00000000E+00
  0.00000000E+00  0.00000000E+00  0.00000000E+00
  0.00000000E+00  0.00000000E+00  0.00000000E+00
  0.00000000E+00  0.00000000E+00  0.00000000E+00
  0.00000000E+00  0.00000000E+00  0.00000000E+00
  0.00000000E+00  0.00000000E+00  0.00000000E+00
  0.00000000E+00  0.00000000E+00  0.00000000E+00
  0.00000000E+00  0.00000000E+00  0.00000000E+00
  0.00000000E+00  0.00000000E+00  0.00000000E+00
  0.00000000E+00  0.00000000E+00  0.00000000E+00
  0.00000000E+00  0.00000000E+00  0.00000000E+00
  0.00000000E+00  0.00000000E+00  0.00000000E+00
  0.00000000E+00  0.00000000E+00  0.00000000E+00
  0.00000000E+00  0.00000000E+00  0.00000000E+00
  0.00000000E+00  0.00000000E+00  0.00000000E+00
  0.00000000E+00  0.00000000E+00  0.00000000E+00
  0.00000000E+00  0.00000000E+00  0.00000000E+00
  0.00000000E+00  0.00000000E+00  0.00000000E+00
  0.00000000E+00  0.00000000E+00  0.00000000E+00
  0.00000000E+00  0.00000000E+00  0.00000000E+00
  0.00000000E+00  0.00000000E+00  0.00000000E+00
  0.00000000E+00  0.00000000E+00  0.00000000E+00
  0.00000000E+00  0.00000000E+00  0.00000000E+00
  0.00000000E+00  0.00000000E+00  0.00000000E+00
  0.00000000E+00  0.00000000E+00  0.00000000E+00
  0.00000000E+00  0.00000000E+00  0.00000000E+00
  0.00000000E+00  0.00000000E+00  0.00000000E+00
  0.00000000E+00  0.00000000E+00  0.00000000E+00
  0.00000000E+00  0.00000000E+00  0.00000000E+00
  0.00000000E+00  0.00000000E+00  0.00000000E+00
  0.00000000E+00  0.00000000E+00  0.00000000E+00
  0.00000000E+00  0.00000000E+00  0.00000000E+00
  0.00000000E+00  0.00000000E+00  0.00000000E+00
  0.00000000E+00  0.00000000E+00  0.00000000E+00
  0.00000000E+00  0.00000000E+00  0.00000000E+00
  0.00000000E+00  0.00000000E+00  0.00000000E+00
  0.00000000E+00  0.00000000E+00  0.00000000E+00
  0.00000000E+00  0.00000000E+00  0.00000000E+00
  0.00000000E+00  0.00000000E+00  0.00000000E+00
  0.00000000E+00  0.00000000E+00  0.00000000E+00
  0.00000000E+00  0.00000000E+00  0.00000000E+00
  0.00000000E+00  0.00000000E+00  0.00000000E+00
  0.00000000E+00  0.00000000E+00  0.00000000E+00
  0.00000000E+00  0.00000000E+00  0.00000000E+00
  0.00000000E+00  0.00000000E+00  0.00000000E+00
  0.00000000E+00  0.00000000E+00  0.00000000E+00
  0.00000000E+00  0.00000000E+00  0.00000000E+00
  0.00000000E+00  0.00000000E+00  0.00000000E+00
  0.00000000E+00  0.00000000E+00  0.00000000E+00
  0.00000000E+00  0.00000000E+00  0.00000000E+00
  0.00000000E+00  0.00000000E+00  0.00000000E+00
  0.00000000E+00  0.00000000E+00  0.00000000E+00
  0.00000000E+00  0.00000000E+00  0.00000000E+00
  0.00000000E+00  0.00000000E+00  0.00000000E+00
  0.00000000E+00  0.00000000E+00  0.00000000E+00
  0.00000000E+00  0.00000000E+00  0.00000000E+00
  0.00000000E+00  0.00000000E+00  0.00000000E+00
  0.00000000E+00  0.00000000E+00  0.00000000E+00
  0.00000000E+00  0.00000000E+00  0.00000000E+00
  0.00000000E+00  0.00000000E+00  0.00000000E+00
