TiZrHfVW                                
   1.00000000000000     
     8.8851047947576127   -0.0012579208204199    0.0062082963909230
    -0.0012172943519311    8.9621394090502182   -0.0034924687954873
     0.0062008503326549   -0.0034561588361304    8.8532514514232865
   Ti   W    Hf   N    C    Zr   V 
     7     6     6    13    19     7     6
Direct
 -0.0029979289172978 -0.0026542332069830  0.0115785140438202
  0.2422782294174789 -0.0050115094382520  0.2532543736753984
  0.2608216066446470  0.5065462477347360  0.2519529703432182
  0.5003650484826651  0.5031857341921498  0.0014932941907199
  0.4911847274140411  0.2603830868361234  0.7494588210856241
 -0.0004721460415105  0.5002525763750766  0.4868331590852703
  0.5078112840097401  0.7389278206964449  0.7474498311508799
 -0.0067926156680056  0.2330325175800452  0.2664498057366726
  0.7615860061768704  0.7355140862507252 -0.0005794560699943
  0.0131077500971661  0.2782828311829063  0.7380129737938745
  0.7568132070394397  0.2783593522120337  0.4988596157656185
 -0.0114815710334658  0.7232765206581871  0.7397844958513845
  0.2670968646748068  0.5007391754843221  0.7478694174184688
  0.2468494528146593  0.2524743377883863  0.0026578490729740
  0.5048669663116182  0.2560566141601026  0.2513916907954420
  0.7554244720302029 -0.0067129972541669  0.2563540849442371
  0.7507699145861483  0.2600933279091671 -0.0100871749588468
  0.2427108811760042  0.7478269333752646  0.0007562633878894
  0.2505750596043736  0.2534305653982685  0.4987806784841368
  0.2460393115109257  0.2483947930014635  0.2508948158414566
  0.2450250057936001  0.0009531639930580  0.0063761442840372
 -0.0009321541516609  0.2412526207546406  0.0028463463872580
  0.7526968512633994  0.2525402040683417  0.2526594974249828
  0.7558480057681362  0.0040918397396285  0.0009422912754402
  0.5017588836266103  0.0047471543974833  0.2494356691723327
 -0.0006099156372357  0.4859199693240929  0.2581482634149924
  0.4999242739043108  0.7464161302377216 -0.0056874492775746
 -0.0020756262302347  0.0044385662577155  0.7525143510565546
  0.7519125958982346  0.2549595942534624  0.7427677847724766
  0.7564359560971501  0.0115663829503344  0.4983150443345342
  0.5064252838054666  0.2545626891569988  0.5039854160586695
  0.5038592314957352  0.0006703494611668  0.7501280526312563
  0.0033094551208177 -0.0037201858582376  0.2514428217289478
  0.5009019175034261  0.2535348546920617 -0.0029487884391679
  0.2409579124992263  0.7494682811082621  0.2486046189328711
  0.2552673986216613  0.4996204502501870  0.0020788921786472
 -0.0057961508298053  0.7558433312293262  0.0014945733955150
  0.7602588196986357  0.7403502356784504  0.2518509801192034
  0.7432926972920980  0.5047176935106619 -0.0001504159778938
  0.5025345812000341  0.4996821054437128  0.2523472146699902
  0.2506720609122772  0.2551676105226057  0.7499774474325266
  0.2415351512939681  0.0028946001280486  0.4934177007686836
 -0.0028662351379848  0.2485240795023513  0.5042330443482224
  0.2483026691175458  0.7424720943027767  0.7519107637121463
  0.2532982029721466  0.4984549138617293  0.4991590842673174
 -0.0117965550332452  0.7526297626366756  0.4968981302413120
 -0.0025150763774897  0.5008587432341342  0.7418173504047926
  0.7470352923764730  0.7398657947023886  0.7480479819354827
  0.7501370832870259  0.5037042809514297  0.4995481536329959
  0.5079639577272989  0.7400872444800548  0.5068189125097915
  0.5029121221223151  0.4997953222668717  0.7481663610310673
  0.5013778368427119  0.0007704907323320 -0.0034950199185419
 -0.0016302379427263  0.5014331278142365  0.0124898505894246
  0.5024798733371946  0.7459893402661890  0.2510274535673610
  0.2387265944405476 -0.0032491934404001  0.7490070190400456
  0.4988109262214937 -0.0066827325809350  0.5030669562697363
  0.7614891356834146 -0.0079912326503364  0.7419851516034922
  0.2443417875420401  0.7461655067883652  0.5004404312951460
 -0.0016419481013320  0.7722683232021644  0.2621458506362639
  0.7338600202413171  0.5104308085543755  0.2471081979574065
  0.0069879435857693 -0.0024288357093497  0.4827223737652203
  0.5011521779276096  0.5074491971545202  0.4986655344256880
  0.7289655706863680  0.5080764009044122  0.7530102864585361
  0.7528507752052037  0.7193018127903453  0.5015143242446206
 
  0.00000000E+00  0.00000000E+00  0.00000000E+00
  0.00000000E+00  0.00000000E+00  0.00000000E+00
  0.00000000E+00  0.00000000E+00  0.00000000E+00
  0.00000000E+00  0.00000000E+00  0.00000000E+00
  0.00000000E+00  0.00000000E+00  0.00000000E+00
  0.00000000E+00  0.00000000E+00  0.00000000E+00
  0.00000000E+00  0.00000000E+00  0.00000000E+00
  0.00000000E+00  0.00000000E+00  0.00000000E+00
  0.00000000E+00  0.00000000E+00  0.00000000E+00
  0.00000000E+00  0.00000000E+00  0.00000000E+00
  0.00000000E+00  0.00000000E+00  0.00000000E+00
  0.00000000E+00  0.00000000E+00  0.00000000E+00
  0.00000000E+00  0.00000000E+00  0.00000000E+00
  0.00000000E+00  0.00000000E+00  0.00000000E+00
  0.00000000E+00  0.00000000E+00  0.00000000E+00
  0.00000000E+00  0.00000000E+00  0.00000000E+00
  0.00000000E+00  0.00000000E+00  0.00000000E+00
  0.00000000E+00  0.00000000E+00  0.00000000E+00
  0.00000000E+00  0.00000000E+00  0.00000000E+00
  0.00000000E+00  0.00000000E+00  0.00000000E+00
  0.00000000E+00  0.00000000E+00  0.00000000E+00
  0.00000000E+00  0.00000000E+00  0.00000000E+00
  0.00000000E+00  0.00000000E+00  0.00000000E+00
  0.00000000E+00  0.00000000E+00  0.00000000E+00
  0.00000000E+00  0.00000000E+00  0.00000000E+00
  0.00000000E+00  0.00000000E+00  0.00000000E+00
  0.00000000E+00  0.00000000E+00  0.00000000E+00
  0.00000000E+00  0.00000000E+00  0.00000000E+00
  0.00000000E+00  0.00000000E+00  0.00000000E+00
  0.00000000E+00  0.00000000E+00  0.00000000E+00
  0.00000000E+00  0.00000000E+00  0.00000000E+00
  0.00000000E+00  0.00000000E+00  0.00000000E+00
  0.00000000E+00  0.00000000E+00  0.00000000E+00
  0.00000000E+00  0.00000000E+00  0.00000000E+00
  0.00000000E+00  0.00000000E+00  0.00000000E+00
  0.00000000E+00  0.00000000E+00  0.00000000E+00
  0.00000000E+00  0.00000000E+00  0.00000000E+00
  0.00000000E+00  0.00000000E+00  0.00000000E+00
  0.00000000E+00  0.00000000E+00  0.00000000E+00
  0.00000000E+00  0.00000000E+00  0.00000000E+00
  0.00000000E+00  0.00000000E+00  0.00000000E+00
  0.00000000E+00  0.00000000E+00  0.00000000E+00
  0.00000000E+00  0.00000000E+00  0.00000000E+00
  0.00000000E+00  0.00000000E+00  0.00000000E+00
  0.00000000E+00  0.00000000E+00  0.00000000E+00
  0.00000000E+00  0.00000000E+00  0.00000000E+00
  0.00000000E+00  0.00000000E+00  0.00000000E+00
  0.00000000E+00  0.00000000E+00  0.00000000E+00
  0.00000000E+00  0.00000000E+00  0.00000000E+00
  0.00000000E+00  0.00000000E+00  0.00000000E+00
  0.00000000E+00  0.00000000E+00  0.00000000E+00
  0.00000000E+00  0.00000000E+00  0.00000000E+00
  0.00000000E+00  0.00000000E+00  0.00000000E+00
  0.00000000E+00  0.00000000E+00  0.00000000E+00
  0.00000000E+00  0.00000000E+00  0.00000000E+00
  0.00000000E+00  0.00000000E+00  0.00000000E+00
  0.00000000E+00  0.00000000E+00  0.00000000E+00
  0.00000000E+00  0.00000000E+00  0.00000000E+00
  0.00000000E+00  0.00000000E+00  0.00000000E+00
  0.00000000E+00  0.00000000E+00  0.00000000E+00
  0.00000000E+00  0.00000000E+00  0.00000000E+00
  0.00000000E+00  0.00000000E+00  0.00000000E+00
  0.00000000E+00  0.00000000E+00  0.00000000E+00
  0.00000000E+00  0.00000000E+00  0.00000000E+00
