102-TiZrNbTaCr                          
   1.00000000000000     
     8.8276324700973543    0.0209710910291021   -0.0022635124357592
     0.0271331131492840    8.8495130287637540   -0.0169453627088229
     0.0295324498465326   -0.0321994839943985    8.8496947798291750
   Zr   Ta   Ti   N    C    Cr   Nb
     7     6     7    13    19     6     6
Direct
  0.0050221270288001  0.9959343974993295  0.9977600927669238
  0.2722477425228512  0.9992056804898528  0.2514715181845406
  0.2449311592321241  0.4956468557777637  0.2469693305791031
  0.4975096764629769  0.4984055715004014  0.0006359787993476
  0.5032859300536182  0.2430955248916720  0.7437091991973950
  0.9992083846407849  0.5017501588033056  0.5051163651809506
  0.4943398841252998  0.7597210989141855  0.7520339389066307
  0.9966195063313001  0.2380798793804728  0.2510033817584820
  0.7494315841819479  0.7480434649749889  0.0070068139751060
  0.0011188763690240  0.2465209713397389  0.7494707271470946
  0.7509393569328241  0.2460956020888143  0.4969290756969619
  0.0004994240149444  0.7533859198258243  0.7507327210060242
  0.2478495123876803  0.4947895395058532  0.7519343611806725
  0.2594793773410258  0.2388268331373093  0.9919185618745542
  0.5066473414679666  0.2595031164923486  0.2517107576122614
  0.7324391782954808  0.9931300103137911  0.2489874872858605
  0.7428265375397436  0.2464321227611012  0.0002635874705114
  0.2492121005154157  0.7498087260607793  0.9998413079696282
  0.2518575050296950  0.2465231892691826  0.5055624916237969
  0.2514494856204669  0.7538679004835176  0.5018487119290060
  0.2487995455810673  0.2461762120262934  0.2461470991867714
  0.2615362674101744  0.0009805336772016  0.9936696727096554
  0.0012673151670381  0.2522598084338215  0.0003575597495000
  0.7491182260501575  0.2441758049925678  0.2474644649674957
  0.7436372259830643  0.0007169675320136  0.0056206134846147
  0.5125414972570634  0.0057319069673206  0.2488986660167903
  0.9939493947938172  0.4924920674873932  0.2427908541650698
  0.5002212477382521  0.7615509892201378  0.0084376601453853
  0.9862761660026750  0.0033165319992348  0.7454215403413803
  0.7559737446188284  0.2444108288192299  0.7490529218380494
  0.7456654011616840  0.0078687132570048  0.4904669776196300
  0.5007502829497426  0.2441902069749243  0.4903044775173110
  0.5246616393508536  0.0010800461102219  0.7480591088682623
  0.9980715117893399  0.0000684219814550  0.2518229042294028
  0.5017920403485472  0.2395323764401955  0.0037487358422048
  0.2563439860586975  0.7485302053701448  0.2485003922874177
  0.2385301953594859  0.4996649057924412  0.9947745930995934
  0.0023971861323029  0.7429419260754809  0.0004585786955181
  0.7435338588798130  0.7532183812502191  0.2498634209376041
  0.7604292202807579  0.4975222023465600  0.0013837707836303
  0.5016677685572313  0.4974555718040321  0.2534564782047735
  0.2471662830269381  0.2450164673715038  0.7493910548993223
  0.2591577129112838  0.0004797695695557  0.5122147499199015
  0.0020525589647318  0.2474804266882385  0.4996086758614221
  0.2415813232425820  0.7574863645490927  0.7518762600545819
  0.2538975454083711  0.4993584388172096  0.5026216229433059
  0.0007151735090433  0.7553800448322046  0.5015693162983604
  0.9992716486965711  0.5008415623333233  0.7593162353687875
  0.7514311842629532  0.7582818415587281  0.7546586018842180
  0.7453005072636653  0.4989045923938981  0.4993833543431277
  0.4943099873272523  0.7623852993457761  0.4894602878371795
  0.4987506432110275  0.5013244053990467  0.7453813927125693
  0.5175208817504651  0.0139275303804335  0.9759874852016150
  0.0020047348744970  0.5198486322855134  0.9838048284157611
  0.4956507703566113  0.7279386966796081  0.2563216558003232
  0.2253059835041254  0.0130217584406881  0.7340211388382312
  0.4867622527781195  0.9863290576979882  0.5219381985344848
  0.7367097806411533  0.9751279679459479  0.7885348052560958
  0.0067082587439192  0.7591016530913938  0.2524285290845951
  0.7485759174878277  0.5047451414291828  0.2503046506170233
  0.0103271970938220  0.0013668150703684  0.5006360238355403
  0.4974730525888382  0.5132937230164409  0.4980394280944986
  0.7496972885289233  0.5105969927239592  0.7538223112865140
  0.7455512782626964  0.7551113973117778  0.4930726280776487
 
  0.00000000E+00  0.00000000E+00  0.00000000E+00
  0.00000000E+00  0.00000000E+00  0.00000000E+00
  0.00000000E+00  0.00000000E+00  0.00000000E+00
  0.00000000E+00  0.00000000E+00  0.00000000E+00
  0.00000000E+00  0.00000000E+00  0.00000000E+00
  0.00000000E+00  0.00000000E+00  0.00000000E+00
  0.00000000E+00  0.00000000E+00  0.00000000E+00
  0.00000000E+00  0.00000000E+00  0.00000000E+00
  0.00000000E+00  0.00000000E+00  0.00000000E+00
  0.00000000E+00  0.00000000E+00  0.00000000E+00
  0.00000000E+00  0.00000000E+00  0.00000000E+00
  0.00000000E+00  0.00000000E+00  0.00000000E+00
  0.00000000E+00  0.00000000E+00  0.00000000E+00
  0.00000000E+00  0.00000000E+00  0.00000000E+00
  0.00000000E+00  0.00000000E+00  0.00000000E+00
  0.00000000E+00  0.00000000E+00  0.00000000E+00
  0.00000000E+00  0.00000000E+00  0.00000000E+00
  0.00000000E+00  0.00000000E+00  0.00000000E+00
  0.00000000E+00  0.00000000E+00  0.00000000E+00
  0.00000000E+00  0.00000000E+00  0.00000000E+00
  0.00000000E+00  0.00000000E+00  0.00000000E+00
  0.00000000E+00  0.00000000E+00  0.00000000E+00
  0.00000000E+00  0.00000000E+00  0.00000000E+00
  0.00000000E+00  0.00000000E+00  0.00000000E+00
  0.00000000E+00  0.00000000E+00  0.00000000E+00
  0.00000000E+00  0.00000000E+00  0.00000000E+00
  0.00000000E+00  0.00000000E+00  0.00000000E+00
  0.00000000E+00  0.00000000E+00  0.00000000E+00
  0.00000000E+00  0.00000000E+00  0.00000000E+00
  0.00000000E+00  0.00000000E+00  0.00000000E+00
  0.00000000E+00  0.00000000E+00  0.00000000E+00
  0.00000000E+00  0.00000000E+00  0.00000000E+00
  0.00000000E+00  0.00000000E+00  0.00000000E+00
  0.00000000E+00  0.00000000E+00  0.00000000E+00
  0.00000000E+00  0.00000000E+00  0.00000000E+00
  0.00000000E+00  0.00000000E+00  0.00000000E+00
  0.00000000E+00  0.00000000E+00  0.00000000E+00
  0.00000000E+00  0.00000000E+00  0.00000000E+00
  0.00000000E+00  0.00000000E+00  0.00000000E+00
  0.00000000E+00  0.00000000E+00  0.00000000E+00
  0.00000000E+00  0.00000000E+00  0.00000000E+00
  0.00000000E+00  0.00000000E+00  0.00000000E+00
  0.00000000E+00  0.00000000E+00  0.00000000E+00
  0.00000000E+00  0.00000000E+00  0.00000000E+00
  0.00000000E+00  0.00000000E+00  0.00000000E+00
  0.00000000E+00  0.00000000E+00  0.00000000E+00
  0.00000000E+00  0.00000000E+00  0.00000000E+00
  0.00000000E+00  0.00000000E+00  0.00000000E+00
  0.00000000E+00  0.00000000E+00  0.00000000E+00
  0.00000000E+00  0.00000000E+00  0.00000000E+00
  0.00000000E+00  0.00000000E+00  0.00000000E+00
  0.00000000E+00  0.00000000E+00  0.00000000E+00
  0.00000000E+00  0.00000000E+00  0.00000000E+00
  0.00000000E+00  0.00000000E+00  0.00000000E+00
  0.00000000E+00  0.00000000E+00  0.00000000E+00
  0.00000000E+00  0.00000000E+00  0.00000000E+00
  0.00000000E+00  0.00000000E+00  0.00000000E+00
  0.00000000E+00  0.00000000E+00  0.00000000E+00
  0.00000000E+00  0.00000000E+00  0.00000000E+00
  0.00000000E+00  0.00000000E+00  0.00000000E+00
  0.00000000E+00  0.00000000E+00  0.00000000E+00
  0.00000000E+00  0.00000000E+00  0.00000000E+00
  0.00000000E+00  0.00000000E+00  0.00000000E+00
  0.00000000E+00  0.00000000E+00  0.00000000E+00
