106-TiVNbTaCr                           
   1.00000000000000     
     8.6192189766854419    0.0029958194752117   -0.0044570302817598
     0.0087850277722821    8.6063999505775080   -0.0041266735646138
     0.0265212821137657   -0.0191639034226223    8.6418787210836818
   V    Nb   Ti   N    C    Cr   Ta
     7     6     7    13    19     6     6
Direct
  0.0214065952406430  0.9850129295919228 -0.0013336477703630
  0.2612700481348943  0.9848893700273453  0.2597058992434203
  0.2678171993166285  0.5126573279488594  0.2436465171302512
  0.4940723635771569  0.4794221784919927  0.0004322561363500
  0.4810045747608077  0.2391516071392629  0.7609924261348379
  0.0011994659295421  0.4930604940625659  0.5149000811469810
  0.5015952927905117  0.7643341657587317  0.7396305570540121
  0.0012213620362242  0.2502599833753308  0.2502181198787488
  0.7371404723263159  0.7520155969323969 -0.0000306565893688
  0.0096045751307428  0.2455722383900728  0.7492746878463994
  0.7549074256978873  0.2502858114830663  0.5027200969911548
  0.0024702490313765  0.7555529462115470  0.7533770945588217
  0.2504758919595335  0.5029586562701427  0.7569673546369278
  0.2501357965180672  0.2433322154307486  0.0033106032349342
  0.4964608883335789  0.2426158892130834  0.2440236190004520
  0.7461709245945705  0.0018276697980078  0.2412779300541547
  0.7492522147544312  0.2462984215055099  0.9952033092998469
  0.2655343871434347  0.7563181268043001  0.0006869532003403
  0.2516876198013591  0.2498576018494817  0.4973665726619513
  0.2507652806864574  0.7512366327000213  0.5025560344053579
  0.2550042615491170  0.2481975781574337  0.2495318307080741
  0.2572494384480928  0.0002101343696530  0.0049243883838894
  0.0012721350235627  0.2410329454887343  0.0008723634315908
  0.7439126892596237  0.2439897545224565  0.2445577807626264
  0.7479572027359506  0.0035050163856023 -0.0012135955991678
  0.4983633942625398  0.9955481391194329  0.2429958589899321
  0.0023565644803087  0.4995527603282432  0.2451673484744058
  0.4989243643124293  0.7563617035002935 -0.0023519828135778
  0.9930953903304877  0.0007987866438089  0.7541209908834536
  0.7452228858147654  0.2420290807710858  0.7518321259502202
  0.7479639803946945  0.0004107444739820  0.4968653465365275
  0.4972319261253232  0.2445594623537163  0.4982784981539369
  0.4977665471645730  0.0064476926993361  0.7499996029128045
  0.0062809399631883 -0.0014553528515819  0.2437534361632471
  0.4984024024140254  0.2485211310228488 -0.0025833463527703
  0.2584914327004107  0.7489504675681814  0.2517298954167588
  0.2478025247801124  0.5010249109850751  0.0084724991525562
  0.0076714145206784  0.7524709646226584  0.0005513505157538
  0.7452264471771987  0.7526494254295096  0.2500440233592030
  0.7522748818800405  0.4956840192842912  0.0002689145286060
  0.4954949742047546  0.5042671404027314  0.2441415169625492
  0.2557746493047734  0.2434761959449092  0.7524254378003408
  0.2598141871820515  0.9993679069644550  0.5063784842231409
  0.0073144304216672  0.2540085836379137  0.5003888458210933
  0.2575584100786659  0.7605599193280473  0.7518187978212194
  0.2446728118925643  0.4996984043061017  0.4947825462838995
  0.0031073875925427  0.7462219136135528  0.4994309839505267
  0.9982821959149105  0.4996735231190343  0.7540833493309754
  0.7434042629702280  0.7580032359762021  0.7500987133716502
  0.7522434866021607  0.5012614708844254  0.5005130607297490
  0.4952260726613170  0.7591777815284952  0.5019984517136502
  0.4989023521496911  0.4989176773584118  0.7549766454225407
  0.5094831147583950  0.0216589428467783  0.9817352476063157
  0.0077302612514761  0.5282885912580800  0.9831270865589958
  0.4928714029389351  0.7606040416143648  0.2702842023114544
  0.2348629788935284 -0.0024167528994278  0.7525490054892144
  0.4808415065397574  0.9915056885230885  0.4742606680285127
  0.7171295958565227  0.9839647759489676  0.7784461515037424
  0.0061189109426954  0.7478717783040728  0.2476214780702630
  0.7420775646852968  0.4954932060949676  0.2464231822651771
  0.0108455481824313  0.0046295037993159  0.4982237382063436
  0.4951218141172357  0.5003427879463043  0.5000839450376429
  0.7453002941582159  0.5025126306047102  0.7544685051763280
  0.7491587115988785  0.7537615760353492  0.4989969545014135
 
  0.00000000E+00  0.00000000E+00  0.00000000E+00
  0.00000000E+00  0.00000000E+00  0.00000000E+00
  0.00000000E+00  0.00000000E+00  0.00000000E+00
  0.00000000E+00  0.00000000E+00  0.00000000E+00
  0.00000000E+00  0.00000000E+00  0.00000000E+00
  0.00000000E+00  0.00000000E+00  0.00000000E+00
  0.00000000E+00  0.00000000E+00  0.00000000E+00
  0.00000000E+00  0.00000000E+00  0.00000000E+00
  0.00000000E+00  0.00000000E+00  0.00000000E+00
  0.00000000E+00  0.00000000E+00  0.00000000E+00
  0.00000000E+00  0.00000000E+00  0.00000000E+00
  0.00000000E+00  0.00000000E+00  0.00000000E+00
  0.00000000E+00  0.00000000E+00  0.00000000E+00
  0.00000000E+00  0.00000000E+00  0.00000000E+00
  0.00000000E+00  0.00000000E+00  0.00000000E+00
  0.00000000E+00  0.00000000E+00  0.00000000E+00
  0.00000000E+00  0.00000000E+00  0.00000000E+00
  0.00000000E+00  0.00000000E+00  0.00000000E+00
  0.00000000E+00  0.00000000E+00  0.00000000E+00
  0.00000000E+00  0.00000000E+00  0.00000000E+00
  0.00000000E+00  0.00000000E+00  0.00000000E+00
  0.00000000E+00  0.00000000E+00  0.00000000E+00
  0.00000000E+00  0.00000000E+00  0.00000000E+00
  0.00000000E+00  0.00000000E+00  0.00000000E+00
  0.00000000E+00  0.00000000E+00  0.00000000E+00
  0.00000000E+00  0.00000000E+00  0.00000000E+00
  0.00000000E+00  0.00000000E+00  0.00000000E+00
  0.00000000E+00  0.00000000E+00  0.00000000E+00
  0.00000000E+00  0.00000000E+00  0.00000000E+00
  0.00000000E+00  0.00000000E+00  0.00000000E+00
  0.00000000E+00  0.00000000E+00  0.00000000E+00
  0.00000000E+00  0.00000000E+00  0.00000000E+00
  0.00000000E+00  0.00000000E+00  0.00000000E+00
  0.00000000E+00  0.00000000E+00  0.00000000E+00
  0.00000000E+00  0.00000000E+00  0.00000000E+00
  0.00000000E+00  0.00000000E+00  0.00000000E+00
  0.00000000E+00  0.00000000E+00  0.00000000E+00
  0.00000000E+00  0.00000000E+00  0.00000000E+00
  0.00000000E+00  0.00000000E+00  0.00000000E+00
  0.00000000E+00  0.00000000E+00  0.00000000E+00
  0.00000000E+00  0.00000000E+00  0.00000000E+00
  0.00000000E+00  0.00000000E+00  0.00000000E+00
  0.00000000E+00  0.00000000E+00  0.00000000E+00
  0.00000000E+00  0.00000000E+00  0.00000000E+00
  0.00000000E+00  0.00000000E+00  0.00000000E+00
  0.00000000E+00  0.00000000E+00  0.00000000E+00
  0.00000000E+00  0.00000000E+00  0.00000000E+00
  0.00000000E+00  0.00000000E+00  0.00000000E+00
  0.00000000E+00  0.00000000E+00  0.00000000E+00
  0.00000000E+00  0.00000000E+00  0.00000000E+00
  0.00000000E+00  0.00000000E+00  0.00000000E+00
  0.00000000E+00  0.00000000E+00  0.00000000E+00
  0.00000000E+00  0.00000000E+00  0.00000000E+00
  0.00000000E+00  0.00000000E+00  0.00000000E+00
  0.00000000E+00  0.00000000E+00  0.00000000E+00
  0.00000000E+00  0.00000000E+00  0.00000000E+00
  0.00000000E+00  0.00000000E+00  0.00000000E+00
  0.00000000E+00  0.00000000E+00  0.00000000E+00
  0.00000000E+00  0.00000000E+00  0.00000000E+00
  0.00000000E+00  0.00000000E+00  0.00000000E+00
  0.00000000E+00  0.00000000E+00  0.00000000E+00
  0.00000000E+00  0.00000000E+00  0.00000000E+00
  0.00000000E+00  0.00000000E+00  0.00000000E+00
  0.00000000E+00  0.00000000E+00  0.00000000E+00
