88-ZrNbTaCrW                            
   1.00000000000000     
     8.8767461977460496   -0.0051631648536990   -0.0214423492991114
     0.0005310714323425    8.9068612569568213   -0.0128699030267938
     0.0104252562638586   -0.0283037908690413    8.9061764606979477
   Nb   Ta   Zr   N    C    Cr   W 
     7     6     7    13    19     6     6
Direct
  0.0003529992597902  0.9850532803561926  0.9987473050317776
  0.2456929641403003  0.9897540722642150  0.2571635880976648
  0.2581393682814166  0.5121001240023085  0.2462252355459957
  0.5036945944469018  0.4874184563504821  0.9931059565894257
  0.4904449395621148  0.2478240420377400  0.7483601843260438
  0.0007835103671483  0.4987140806901322  0.5066947815951482
  0.5058821414977110  0.7560973299047775  0.7377667287507467
 -0.0016567716610386  0.2413424098918076  0.2557560981881346
  0.7500625644420879  0.7464558319912624  0.0046097559282451
  0.0087968471014776  0.2451272935605596  0.7444961422954383
  0.7504093076566618  0.2568074909603695  0.5109645803342459
  0.0022747248909725  0.7518433140878400  0.7515499067221032
  0.2497993440342686  0.5044577883739859  0.7529932010112969
  0.2462039525507316  0.2451571250815613 -0.0011731147017252
  0.4982196706654778  0.2433598686379649  0.2481666038758352
  0.7365976312960979  0.9897584976738889  0.2629961700552451
  0.7513608704224958  0.2450997352385511  0.9894862910639131
  0.2654470856171044  0.7569851220471653  0.0013489815103353
  0.2529519533358172  0.2516118159654023  0.5010439622394425
  0.2482690288540677  0.7518867861610407  0.5013948909866600
  0.2436202153889570  0.2512182725851712  0.2503169669974695
  0.2459435232067733 -0.0000064593870798  0.0027041681500472
 -0.0015021094414798  0.2405569039020936  0.0033100141180222
  0.7533759272894948  0.2494327330802999  0.2553935844575814
  0.7447443422605515  0.9899670095987796 -0.0035489447060480
  0.4912221848453056  0.9928044351271226  0.2829628267794026
  0.9955949592088257  0.4905780783918517  0.2559056891010859
  0.5120326623902559  0.7594354027581378 -0.0130232687411969
  0.9870237678565129  0.0022830219311894  0.7440299409670701
  0.7539006593676898  0.2563251935127147  0.7434269817815166
  0.7648803749051514  0.0089104809912421  0.5075803568235908
  0.5089932306924226  0.2528804832144501  0.5014455359151307
  0.5332181995049481  0.0040418358054731  0.7310580977571127
 -0.0050701495905002  0.0000739585467045  0.2483934936506689
  0.4997916723191896  0.2392344865583038 -0.0057190099668000
  0.2582885501758691  0.7501964529416695  0.2514210635162619
  0.2425608936822899  0.5019650259496206  0.9986921261331377
  0.0015826414941334  0.7439273865447132  0.0040050491504494
  0.7448884768492263  0.7395986809209242  0.2496748479308065
  0.7636521726053873  0.5008631551713467  0.0046831927752696
  0.4965362536788144  0.5068954196706685  0.2447426356766131
  0.2495885280510025  0.2460767938967812  0.7505429590307500
  0.2499046725683827  0.0013287021399145  0.5148210650090395
  0.9972389520979198  0.2504068313651518  0.5009465591897128
  0.2513174866844547  0.7585351718010542  0.7515540383381987
  0.2526512435094579  0.5019682868899807  0.5003815055903085
  0.9908101668402163  0.7557310211009962  0.4997772009721429
  0.9996800032848108  0.5001771725386078  0.7531462060503028
  0.7535922971887861  0.7533946867275375  0.7457318578375726
  0.7479396008473412  0.4970678620646574  0.5007150665257691
  0.5066773881771426  0.7666952146390483  0.4945241642007391
  0.5052005700578432  0.5003599324847142  0.7428377409683092
  0.5253558859487301  0.0184496448409895  0.9443439772875134
 -0.0039524824687605  0.5292748439245318  0.9696898686392812
  0.5081735499430923  0.7329150498750218  0.2837158897760355
  0.2220810791460874 -0.0028933724972548  0.7507834943917295
  0.4627857438014861  0.9951785300302475  0.5192917107639419
  0.7416303323606489  0.9669392240997742  0.7701047142433388
 -0.0009423621096851  0.7672186033843642  0.2524546934080500
  0.7280445644445057  0.5077934081236813  0.2441334971134638
  0.0134721034681097  0.0076090057232894  0.4938389464629966
  0.4984605417583244  0.5128817815939238  0.4917038481746870
  0.7531194146331485  0.5157966382199892  0.7599964282320133
  0.7481659203155122  0.7290582949403595  0.4958121060809554
 
  0.00000000E+00  0.00000000E+00  0.00000000E+00
  0.00000000E+00  0.00000000E+00  0.00000000E+00
  0.00000000E+00  0.00000000E+00  0.00000000E+00
  0.00000000E+00  0.00000000E+00  0.00000000E+00
  0.00000000E+00  0.00000000E+00  0.00000000E+00
  0.00000000E+00  0.00000000E+00  0.00000000E+00
  0.00000000E+00  0.00000000E+00  0.00000000E+00
  0.00000000E+00  0.00000000E+00  0.00000000E+00
  0.00000000E+00  0.00000000E+00  0.00000000E+00
  0.00000000E+00  0.00000000E+00  0.00000000E+00
  0.00000000E+00  0.00000000E+00  0.00000000E+00
  0.00000000E+00  0.00000000E+00  0.00000000E+00
  0.00000000E+00  0.00000000E+00  0.00000000E+00
  0.00000000E+00  0.00000000E+00  0.00000000E+00
  0.00000000E+00  0.00000000E+00  0.00000000E+00
  0.00000000E+00  0.00000000E+00  0.00000000E+00
  0.00000000E+00  0.00000000E+00  0.00000000E+00
  0.00000000E+00  0.00000000E+00  0.00000000E+00
  0.00000000E+00  0.00000000E+00  0.00000000E+00
  0.00000000E+00  0.00000000E+00  0.00000000E+00
  0.00000000E+00  0.00000000E+00  0.00000000E+00
  0.00000000E+00  0.00000000E+00  0.00000000E+00
  0.00000000E+00  0.00000000E+00  0.00000000E+00
  0.00000000E+00  0.00000000E+00  0.00000000E+00
  0.00000000E+00  0.00000000E+00  0.00000000E+00
  0.00000000E+00  0.00000000E+00  0.00000000E+00
  0.00000000E+00  0.00000000E+00  0.00000000E+00
  0.00000000E+00  0.00000000E+00  0.00000000E+00
  0.00000000E+00  0.00000000E+00  0.00000000E+00
  0.00000000E+00  0.00000000E+00  0.00000000E+00
  0.00000000E+00  0.00000000E+00  0.00000000E+00
  0.00000000E+00  0.00000000E+00  0.00000000E+00
  0.00000000E+00  0.00000000E+00  0.00000000E+00
  0.00000000E+00  0.00000000E+00  0.00000000E+00
  0.00000000E+00  0.00000000E+00  0.00000000E+00
  0.00000000E+00  0.00000000E+00  0.00000000E+00
  0.00000000E+00  0.00000000E+00  0.00000000E+00
  0.00000000E+00  0.00000000E+00  0.00000000E+00
  0.00000000E+00  0.00000000E+00  0.00000000E+00
  0.00000000E+00  0.00000000E+00  0.00000000E+00
  0.00000000E+00  0.00000000E+00  0.00000000E+00
  0.00000000E+00  0.00000000E+00  0.00000000E+00
  0.00000000E+00  0.00000000E+00  0.00000000E+00
  0.00000000E+00  0.00000000E+00  0.00000000E+00
  0.00000000E+00  0.00000000E+00  0.00000000E+00
  0.00000000E+00  0.00000000E+00  0.00000000E+00
  0.00000000E+00  0.00000000E+00  0.00000000E+00
  0.00000000E+00  0.00000000E+00  0.00000000E+00
  0.00000000E+00  0.00000000E+00  0.00000000E+00
  0.00000000E+00  0.00000000E+00  0.00000000E+00
  0.00000000E+00  0.00000000E+00  0.00000000E+00
  0.00000000E+00  0.00000000E+00  0.00000000E+00
  0.00000000E+00  0.00000000E+00  0.00000000E+00
  0.00000000E+00  0.00000000E+00  0.00000000E+00
  0.00000000E+00  0.00000000E+00  0.00000000E+00
  0.00000000E+00  0.00000000E+00  0.00000000E+00
  0.00000000E+00  0.00000000E+00  0.00000000E+00
  0.00000000E+00  0.00000000E+00  0.00000000E+00
  0.00000000E+00  0.00000000E+00  0.00000000E+00
  0.00000000E+00  0.00000000E+00  0.00000000E+00
  0.00000000E+00  0.00000000E+00  0.00000000E+00
  0.00000000E+00  0.00000000E+00  0.00000000E+00
  0.00000000E+00  0.00000000E+00  0.00000000E+00
  0.00000000E+00  0.00000000E+00  0.00000000E+00
