Hf                                      
   1.00000000000000     
     3.2372413123506663    0.0000000000007690    0.0000000000000000
    -1.6186206561239997    2.8035332146526346    0.0000000000000000
    -0.0000000000000000    0.0000000000000000    4.9855287860768032
  Hf            
     2
Direct
  0.3333333429999996  0.6666666870000029  0.2500000000000000
  0.6666666570000004  0.3333333129999971  0.7500000000000000
 
  0.00000000E+00  0.00000000E+00  0.00000000E+00
  0.00000000E+00  0.00000000E+00  0.00000000E+00
