Hf
1.0
        3.1946001053         0.0000000000         0.0000000000
       -1.5973000526         2.7666048461         0.0000000000
        0.0000000000         0.0000000000         5.0510997772
   Hf
    2
Direct
     0.333333343         0.666666687         0.250000000
     0.666666657         0.333333313         0.750000000
