99-TiZrHfTaCr                           
   1.00000000000000     
     8.8978289562589676    0.0041535312541083   -0.0125415410090091
     0.0104108267561643    8.8970308156066675   -0.0098762682693772
     0.0195246600820305   -0.0252219568304028    8.9202791945515632
   Zr   Hf   Ti   N    C    Cr   Ta
     7     6     7    13    19     6     6
Direct
  0.0082470294289886  0.9923828771466862  0.9983409843129974
  0.2745496258899712  0.9981961282659340  0.2505085450155431
  0.2484431864156092  0.4968238550243059  0.2483117766574188
  0.4954548945801984  0.5000366458427706  0.0003907205987583
  0.5010652124885068  0.2462396225598348  0.7456379500193109
 -0.0002501794042131  0.4993151721414592  0.5051648356277911
  0.4961264479108868  0.7600521166080924  0.7465668944969942
  0.0008931661437159  0.2452311338771059  0.2420654208824375
  0.7409811987588122  0.7545531631849921  0.0048734062659165
 -0.0032856121209887  0.2459341354885478  0.7583902734904511
  0.7473266929521463  0.2378666907369212  0.4990274862034536
  0.0012799410469614  0.7563183230288776  0.7497807054135206
  0.2475104353298130  0.5002949606011298  0.7520568283273005
  0.2627482148742237  0.2379176250757824  0.9914530228772994
  0.5020661293078520  0.2598953182372619  0.2501892794785905
  0.7300167566105803  0.9952478807632438  0.2416085028047155
  0.7372253577982406  0.2436885698201208  0.0007395911890391
  0.2543956018713511  0.7507328732456500 -0.0013024616641378
  0.2539342387436139  0.2455533034790164  0.5078553210570348
  0.2534336549232914  0.7539580631144420  0.5005867787413379
  0.2531155255425854  0.2463049009245885  0.2452549438738154
  0.2642719928948032  0.0000852032985853  0.9931388619998197
 -0.0029535844204727  0.2466026043642041 -0.0001317837561016
  0.7465645787209259  0.2467628486936870  0.2467764233001575
  0.7375806535415972  0.0032167920601803  0.0031202203176895
  0.5128776825929435  0.0043900365486020  0.2842450948468128
  0.9936140408414549  0.4987720164588202  0.2433570025458578
  0.4941978683870015  0.7643581145204197  0.0047854424297786
 -0.0035282899448528  0.0025891895601120  0.7426939948270509
  0.7515663377411512  0.2490637818831314  0.7525089838979994
  0.7542667380823237 -0.0026986714682302  0.4986858840640048
  0.4975442515658248  0.2475470866137232  0.4926549085992017
  0.5260939098917797  0.0024022783746215  0.7404075545074211
  0.9993580611742878 -0.0034064751541909  0.2523164861291242
  0.5004980981213708  0.2381906517915534  0.0039450536655120
  0.2545377702222802  0.7485444858071374  0.2483010930848183
  0.2382720296166616  0.4996927474868753  0.9986613244352452
  0.0034726334402815  0.7429726912425707  0.0022728589042154
  0.7452656590353591  0.7524288172746251  0.2530519643561883
  0.7580101342174121  0.4950313121454828  0.0019656422738471
  0.5028886889502776  0.4968631049451570  0.2539188864806234
  0.2478537624023009  0.2408550898595340  0.7503342878411862
  0.2560646993202544  0.0000730143041019  0.5099094852791699
  0.0017770259539887  0.2437869275272848  0.4990091419300929
  0.2469294866554179  0.7601163881807264  0.7521122542783707
  0.2553236307114926  0.4980272970965602  0.5005569420123489
 -0.0006575625649186  0.7565450456521940  0.4959869518616795
  0.9956801970333683  0.5015774525712300  0.7608501380688142
  0.7499767212319997  0.7555401391478284  0.7511002386604893
  0.7445343353769103  0.5022935201496815  0.4987254785430870
  0.4965366959769487  0.7612679928479118  0.4895584487039293
  0.5030492888565434  0.5021537184225320  0.7445489281012431
  0.5022173180524986  0.0110918154799111  0.9582376092238940
  0.0039612001174914  0.5195468545388351  0.9897511279460572
  0.4987002514982934  0.7290521352121025  0.2624956690303013
  0.2382498862193753  0.0028267057337949  0.7400385352417773
  0.4746055057885986  0.9947254649941967  0.5217479376457220
  0.7404727281032026  0.9805671716704993  0.7774988024193957
  0.0084559148163632  0.7525153209586978  0.2496018792694737
  0.7467868191145399  0.5049894347734898  0.2483516434585495
  0.0157000380196536  0.0002691317967975  0.4981294169127757
  0.4978429980319133  0.5088448726059330  0.4985814549260775
  0.7498786338687223  0.5112230866873272  0.7550525024088828
  0.7463840276504666  0.7621591951750031  0.4936445596578443
 
  0.00000000E+00  0.00000000E+00  0.00000000E+00
  0.00000000E+00  0.00000000E+00  0.00000000E+00
  0.00000000E+00  0.00000000E+00  0.00000000E+00
  0.00000000E+00  0.00000000E+00  0.00000000E+00
  0.00000000E+00  0.00000000E+00  0.00000000E+00
  0.00000000E+00  0.00000000E+00  0.00000000E+00
  0.00000000E+00  0.00000000E+00  0.00000000E+00
  0.00000000E+00  0.00000000E+00  0.00000000E+00
  0.00000000E+00  0.00000000E+00  0.00000000E+00
  0.00000000E+00  0.00000000E+00  0.00000000E+00
  0.00000000E+00  0.00000000E+00  0.00000000E+00
  0.00000000E+00  0.00000000E+00  0.00000000E+00
  0.00000000E+00  0.00000000E+00  0.00000000E+00
  0.00000000E+00  0.00000000E+00  0.00000000E+00
  0.00000000E+00  0.00000000E+00  0.00000000E+00
  0.00000000E+00  0.00000000E+00  0.00000000E+00
  0.00000000E+00  0.00000000E+00  0.00000000E+00
  0.00000000E+00  0.00000000E+00  0.00000000E+00
  0.00000000E+00  0.00000000E+00  0.00000000E+00
  0.00000000E+00  0.00000000E+00  0.00000000E+00
  0.00000000E+00  0.00000000E+00  0.00000000E+00
  0.00000000E+00  0.00000000E+00  0.00000000E+00
  0.00000000E+00  0.00000000E+00  0.00000000E+00
  0.00000000E+00  0.00000000E+00  0.00000000E+00
  0.00000000E+00  0.00000000E+00  0.00000000E+00
  0.00000000E+00  0.00000000E+00  0.00000000E+00
  0.00000000E+00  0.00000000E+00  0.00000000E+00
  0.00000000E+00  0.00000000E+00  0.00000000E+00
  0.00000000E+00  0.00000000E+00  0.00000000E+00
  0.00000000E+00  0.00000000E+00  0.00000000E+00
  0.00000000E+00  0.00000000E+00  0.00000000E+00
  0.00000000E+00  0.00000000E+00  0.00000000E+00
  0.00000000E+00  0.00000000E+00  0.00000000E+00
  0.00000000E+00  0.00000000E+00  0.00000000E+00
  0.00000000E+00  0.00000000E+00  0.00000000E+00
  0.00000000E+00  0.00000000E+00  0.00000000E+00
  0.00000000E+00  0.00000000E+00  0.00000000E+00
  0.00000000E+00  0.00000000E+00  0.00000000E+00
  0.00000000E+00  0.00000000E+00  0.00000000E+00
  0.00000000E+00  0.00000000E+00  0.00000000E+00
  0.00000000E+00  0.00000000E+00  0.00000000E+00
  0.00000000E+00  0.00000000E+00  0.00000000E+00
  0.00000000E+00  0.00000000E+00  0.00000000E+00
  0.00000000E+00  0.00000000E+00  0.00000000E+00
  0.00000000E+00  0.00000000E+00  0.00000000E+00
  0.00000000E+00  0.00000000E+00  0.00000000E+00
  0.00000000E+00  0.00000000E+00  0.00000000E+00
  0.00000000E+00  0.00000000E+00  0.00000000E+00
  0.00000000E+00  0.00000000E+00  0.00000000E+00
  0.00000000E+00  0.00000000E+00  0.00000000E+00
  0.00000000E+00  0.00000000E+00  0.00000000E+00
  0.00000000E+00  0.00000000E+00  0.00000000E+00
  0.00000000E+00  0.00000000E+00  0.00000000E+00
  0.00000000E+00  0.00000000E+00  0.00000000E+00
  0.00000000E+00  0.00000000E+00  0.00000000E+00
  0.00000000E+00  0.00000000E+00  0.00000000E+00
  0.00000000E+00  0.00000000E+00  0.00000000E+00
  0.00000000E+00  0.00000000E+00  0.00000000E+00
  0.00000000E+00  0.00000000E+00  0.00000000E+00
  0.00000000E+00  0.00000000E+00  0.00000000E+00
  0.00000000E+00  0.00000000E+00  0.00000000E+00
  0.00000000E+00  0.00000000E+00  0.00000000E+00
  0.00000000E+00  0.00000000E+00  0.00000000E+00
  0.00000000E+00  0.00000000E+00  0.00000000E+00
