116-TiTaCrMoW                           
   1.00000000000000     
     8.6563042980008955    0.0087341153230781    0.0016010282393184
     0.0144673459596198    8.6684435537098690    0.0088160212665822
     0.0326347143161199   -0.0063456315929588    8.7208258511062695
   Ta   W    Ti   N    C    Cr   Mo
     7     6     7    13    19     6     6
Direct
  0.0029172269828638  0.9947870915031936  0.0038576973785428
  0.2573087994210008  0.9950437704148027  0.2550130264091466
  0.2581075147224737  0.5071102322867652  0.2466517846267046
  0.5068310494260400  0.4942436662208827  0.9995817879348674
  0.4983234258834430  0.2428060292997760  0.7497413943183701
  0.0031698357605799  0.5036592529392988  0.5074228738200742
  0.5005442060720219  0.7577775759121512  0.7436778350407235
  0.9775948534800940  0.2480624283052096  0.2632170909007672
  0.7647031843533056  0.7442150814386583  0.0023401400211292
  0.0177486463920754  0.2402738677559439  0.7417614723314729
  0.7583668041152417  0.2541598424065725  0.4822186484905538
  0.0048078611664672  0.7436933302482964  0.7568909682430657
  0.2529785958423680  0.5052875129593796  0.7552190988408848
  0.2489608562568111  0.2518873166179104  0.9934703103909200
  0.5059506960548581  0.2463593988118473  0.2488436319735847
  0.7359726116306321  0.9861810311173382  0.2600861354695673
  0.7479241998981276  0.2446104052485406  0.9877598145026349
  0.2570052545238211  0.7521324117311055  0.0001773883401279
  0.2565498753047830  0.2477877207840491  0.5057822499609149
  0.2494904339974590  0.7545934595360274  0.5031081541243317
  0.2493302989603827  0.2503546708851747  0.2513706530293452
  0.2510426645443496  0.0029316412142194  0.0012164653144466
 -0.0000351675566542  0.2461990545396908  0.0048879407581343
  0.7402749742500933  0.2304761172000629  0.2389619356911788
  0.7474647678689290  0.9960492842784936  0.0044088492022245
  0.5004563224393550 -0.0035731812158904  0.2347204738890272
  0.0073016257631604  0.4913596156318773  0.2551826935254612
  0.5027540472169973  0.7540606054824955 -0.0072679692361812
  0.9858103856133444 -0.0036436414550301  0.7545977315680703
  0.7531193800066999  0.2291292083630803  0.7446469712934205
  0.7437477539184192  0.0042909662401982  0.4920275768747364
  0.5047396706069093  0.2378551078836618  0.4955452642516314
  0.4969689364240708  0.0010656151122035  0.7518150168525155
  0.9970359887781352  0.0052942892796719  0.2513786892569619
  0.5017166385648116  0.2488055010124486  0.0010902368674674
  0.2549985426994594  0.7517602308172263  0.2521832367567940
  0.2448854308237830  0.5015980455618974  0.0000800458022627
  0.0103663115566679  0.7457018373095243  0.0061271237020991
  0.7345697738958670  0.7393182539096929  0.2454970650683605
  0.7665410812145470  0.4930544392597529  0.0101606081805002
  0.5020698343347513  0.5059832841525933  0.2474208406774946
  0.2551276720074475  0.2447372164556478  0.7491548018841441
  0.2589881510073112  0.0008533751617054  0.5099122116032191
  0.0068742498005018  0.2546555057681509  0.5032523750410487
  0.2506524852654876  0.7607673054398176  0.7514106931960156
  0.2525726593857955  0.5020122400684452  0.5013541269599753
 -0.0001718120295075  0.7549010865132971  0.5060043857741987
  0.9988938602674645  0.4908805521743164  0.7558152583498839
  0.7536914713121559  0.7670439123130132  0.7451200559392748
  0.7512166243302677  0.4921294095211340  0.5135762117120676
  0.4972095687355737  0.7610656890476887  0.4963227027206968
  0.5014355880757244  0.5008176313583534  0.7472373212737254
  0.5179903831869920  0.0228473631507514  0.9821001540126492
  0.9948405879522666  0.5264627338751856  0.9728858615731927
  0.4953654145456571  0.7684729749121754  0.2796829754054755
  0.2208124666520500  0.0032534410500941  0.7313440286638605
  0.4796522292197142 -0.0026182104994605  0.4705896073757787
  0.7213782400534045  0.9859383375062949  0.7832000737233157
 -0.0067091654121974  0.7624578659888954  0.2511562527674017
  0.7427772551055978  0.4880726492188286  0.2572946840339017
  0.0088568063697604  0.0079071706483754  0.4994194290586824
  0.5026692058698992  0.5060236853496979  0.4936920064511927
  0.7491505410017988  0.5238972550960452  0.7643913678766240
  0.7463107000882694  0.7346781898807544  0.4922105981593569
 
  0.00000000E+00  0.00000000E+00  0.00000000E+00
  0.00000000E+00  0.00000000E+00  0.00000000E+00
  0.00000000E+00  0.00000000E+00  0.00000000E+00
  0.00000000E+00  0.00000000E+00  0.00000000E+00
  0.00000000E+00  0.00000000E+00  0.00000000E+00
  0.00000000E+00  0.00000000E+00  0.00000000E+00
  0.00000000E+00  0.00000000E+00  0.00000000E+00
  0.00000000E+00  0.00000000E+00  0.00000000E+00
  0.00000000E+00  0.00000000E+00  0.00000000E+00
  0.00000000E+00  0.00000000E+00  0.00000000E+00
  0.00000000E+00  0.00000000E+00  0.00000000E+00
  0.00000000E+00  0.00000000E+00  0.00000000E+00
  0.00000000E+00  0.00000000E+00  0.00000000E+00
  0.00000000E+00  0.00000000E+00  0.00000000E+00
  0.00000000E+00  0.00000000E+00  0.00000000E+00
  0.00000000E+00  0.00000000E+00  0.00000000E+00
  0.00000000E+00  0.00000000E+00  0.00000000E+00
  0.00000000E+00  0.00000000E+00  0.00000000E+00
  0.00000000E+00  0.00000000E+00  0.00000000E+00
  0.00000000E+00  0.00000000E+00  0.00000000E+00
  0.00000000E+00  0.00000000E+00  0.00000000E+00
  0.00000000E+00  0.00000000E+00  0.00000000E+00
  0.00000000E+00  0.00000000E+00  0.00000000E+00
  0.00000000E+00  0.00000000E+00  0.00000000E+00
  0.00000000E+00  0.00000000E+00  0.00000000E+00
  0.00000000E+00  0.00000000E+00  0.00000000E+00
  0.00000000E+00  0.00000000E+00  0.00000000E+00
  0.00000000E+00  0.00000000E+00  0.00000000E+00
  0.00000000E+00  0.00000000E+00  0.00000000E+00
  0.00000000E+00  0.00000000E+00  0.00000000E+00
  0.00000000E+00  0.00000000E+00  0.00000000E+00
  0.00000000E+00  0.00000000E+00  0.00000000E+00
  0.00000000E+00  0.00000000E+00  0.00000000E+00
  0.00000000E+00  0.00000000E+00  0.00000000E+00
  0.00000000E+00  0.00000000E+00  0.00000000E+00
  0.00000000E+00  0.00000000E+00  0.00000000E+00
  0.00000000E+00  0.00000000E+00  0.00000000E+00
  0.00000000E+00  0.00000000E+00  0.00000000E+00
  0.00000000E+00  0.00000000E+00  0.00000000E+00
  0.00000000E+00  0.00000000E+00  0.00000000E+00
  0.00000000E+00  0.00000000E+00  0.00000000E+00
  0.00000000E+00  0.00000000E+00  0.00000000E+00
  0.00000000E+00  0.00000000E+00  0.00000000E+00
  0.00000000E+00  0.00000000E+00  0.00000000E+00
  0.00000000E+00  0.00000000E+00  0.00000000E+00
  0.00000000E+00  0.00000000E+00  0.00000000E+00
  0.00000000E+00  0.00000000E+00  0.00000000E+00
  0.00000000E+00  0.00000000E+00  0.00000000E+00
  0.00000000E+00  0.00000000E+00  0.00000000E+00
  0.00000000E+00  0.00000000E+00  0.00000000E+00
  0.00000000E+00  0.00000000E+00  0.00000000E+00
  0.00000000E+00  0.00000000E+00  0.00000000E+00
  0.00000000E+00  0.00000000E+00  0.00000000E+00
  0.00000000E+00  0.00000000E+00  0.00000000E+00
  0.00000000E+00  0.00000000E+00  0.00000000E+00
  0.00000000E+00  0.00000000E+00  0.00000000E+00
  0.00000000E+00  0.00000000E+00  0.00000000E+00
  0.00000000E+00  0.00000000E+00  0.00000000E+00
  0.00000000E+00  0.00000000E+00  0.00000000E+00
  0.00000000E+00  0.00000000E+00  0.00000000E+00
  0.00000000E+00  0.00000000E+00  0.00000000E+00
  0.00000000E+00  0.00000000E+00  0.00000000E+00
  0.00000000E+00  0.00000000E+00  0.00000000E+00
  0.00000000E+00  0.00000000E+00  0.00000000E+00
