63-TiZrTaCrMo                           
   1.00000000000000     
     8.8133477365539594    0.0264169854388035   -0.0087039236663620
     0.0326624893065577    8.8274727517515128    0.0043136774317032
     0.0229327061236223   -0.0110056181363650    8.7989910277854033
  Zr              Ta              Ti              N               C               Cr              Mo            
     7     6     7    13    19     6     6
Direct
  0.0012034673607662  0.9955680398134443  0.9974339955365328
  0.2679139113507224  0.0018015682903668  0.2455358704543510
  0.2425059764137095  0.4946733455014512  0.2452270153909130
  0.5021989964104244  0.4990714336807253  0.0007507993471368
  0.5061884568600401  0.2463865729066555  0.7426060454011519
  0.9960329520183390  0.5021429434984490  0.5004553340603205
  0.4973632547256545  0.7587087023886702  0.7473278231839401
  0.9921660496642376  0.2388427172495143  0.2503357517832848
  0.7539089513234750  0.7472225467521973  0.0108321937998509
  0.0014361827464536  0.2498503443161725  0.7513226851246543
  0.7503209957425806  0.2440222939344925  0.5009558776541413
  0.9995158964691762  0.7512318520216499  0.7480905956072916
  0.2509947685768315  0.4955322280343996  0.7490874656077281
  0.2588593217080891  0.2417651521759057  0.9900449432084408
  0.5106896058685314  0.2558276670720872  0.2530995617280460
  0.7327296187281710  0.9878896138996279  0.2640979035865557
  0.7437369101311296  0.2433290920874804  0.9979265217029232
  0.2480477727005371  0.7475079903886218  0.9966240486235383
  0.2525530907002587  0.2468896851948286  0.5052577156060903
  0.2504301813885099  0.7512038164051498  0.5010066518633188
  0.2480895881779766  0.2481395731846067  0.2476974311879697
  0.2608779401823655  0.0007938301453334  0.9903414679649124
  0.0006461948712898  0.2531444448113436  0.0000959944352377
  0.7486427679541485  0.2414090893143004  0.2495522291411527
  0.7419304709050435  0.9978788505356105  0.0072660112215929
  0.5121605036766044  0.0086870858201498  0.2634050567804120
  0.9915087385184918  0.4916059618990835  0.2429766992663957
  0.4998412257681023  0.7629657559622949  0.0075626690991748
  0.9895734791725154  0.0039727106972719  0.7420411577394627
  0.7573621532536399  0.2424383377128421  0.7510586188193220
  0.7560961483455680  0.0083033321147802  0.4923210587881632
  0.5015214426752803  0.2448643428653743  0.4892367910769559
  0.5214521154762901  0.0017889809979007  0.7443337357045013
  0.9974414796655562  0.0009608303855735  0.2535770289282496
  0.5021393858313675  0.2377660356301312  0.0040920145359783
  0.2565242270038752  0.7494159258730346  0.2487117687472488
  0.2399091505936641  0.5008316005344724  0.9922221723820398
  0.0024439564341271  0.7395412283403069  0.0031217174489280
  0.7440876553998164  0.7478164255180750  0.2531639416604063
  0.7641155601136487  0.4948212930844801  0.0082196770203802
  0.4960728671938237  0.5007374522153523  0.2517993332049028
  0.2480453971888709  0.2475821425148127  0.7483653531053623
  0.2597952283948904  0.9999081953247915  0.5153012900080475
  0.0030338717042405  0.2467917622772057  0.4998946648744392
  0.2421876966055555  0.7568340552518407  0.7504988677304689
  0.2550237630744150  0.5018469760555029  0.5021150574450973
  0.0012011226201094  0.7587489979009258  0.5004059290244154
  0.0010148586012299  0.5016565605778429  0.7560184444598315
  0.7523880040018309  0.7589816399332251  0.7499791725413721
  0.7428540231718150  0.4953276814364688  0.5079897099795231
  0.4976669083339112  0.7648045288770206  0.4826653561654904
  0.5022068063240589  0.5029198555834772  0.7423131250716960
  0.5183897481244354  0.0111017957507941  0.9694664639189978
  0.9936725221208051  0.5148519451841792  0.9795670713227604
  0.4783518779797342  0.7272610575387208  0.2549336618597462
  0.2228504834213463  0.0162515760386282  0.7472187309811094
  0.4748515883230761  0.9923757884565653  0.5129739767568066
  0.7362444409292613  0.9746492735973900  0.7838255751807915
  0.0146664421171312  0.7685532736880997  0.2576034483647364
  0.7339581920013352  0.5061142052836097  0.2563364347972875
  0.0237912464220596  0.0026597994381730  0.4967914309861122
  0.5048220455667589  0.5190034754877152  0.4878832423399421
  0.7550314853617879  0.5183615130158994  0.7639841235100066
  0.7467192115104749  0.7360629585329223  0.4930536311524862
 
  0.00000000E+00  0.00000000E+00  0.00000000E+00
  0.00000000E+00  0.00000000E+00  0.00000000E+00
  0.00000000E+00  0.00000000E+00  0.00000000E+00
  0.00000000E+00  0.00000000E+00  0.00000000E+00
  0.00000000E+00  0.00000000E+00  0.00000000E+00
  0.00000000E+00  0.00000000E+00  0.00000000E+00
  0.00000000E+00  0.00000000E+00  0.00000000E+00
  0.00000000E+00  0.00000000E+00  0.00000000E+00
  0.00000000E+00  0.00000000E+00  0.00000000E+00
  0.00000000E+00  0.00000000E+00  0.00000000E+00
  0.00000000E+00  0.00000000E+00  0.00000000E+00
  0.00000000E+00  0.00000000E+00  0.00000000E+00
  0.00000000E+00  0.00000000E+00  0.00000000E+00
  0.00000000E+00  0.00000000E+00  0.00000000E+00
  0.00000000E+00  0.00000000E+00  0.00000000E+00
  0.00000000E+00  0.00000000E+00  0.00000000E+00
  0.00000000E+00  0.00000000E+00  0.00000000E+00
  0.00000000E+00  0.00000000E+00  0.00000000E+00
  0.00000000E+00  0.00000000E+00  0.00000000E+00
  0.00000000E+00  0.00000000E+00  0.00000000E+00
  0.00000000E+00  0.00000000E+00  0.00000000E+00
  0.00000000E+00  0.00000000E+00  0.00000000E+00
  0.00000000E+00  0.00000000E+00  0.00000000E+00
  0.00000000E+00  0.00000000E+00  0.00000000E+00
  0.00000000E+00  0.00000000E+00  0.00000000E+00
  0.00000000E+00  0.00000000E+00  0.00000000E+00
  0.00000000E+00  0.00000000E+00  0.00000000E+00
  0.00000000E+00  0.00000000E+00  0.00000000E+00
  0.00000000E+00  0.00000000E+00  0.00000000E+00
  0.00000000E+00  0.00000000E+00  0.00000000E+00
  0.00000000E+00  0.00000000E+00  0.00000000E+00
  0.00000000E+00  0.00000000E+00  0.00000000E+00
  0.00000000E+00  0.00000000E+00  0.00000000E+00
  0.00000000E+00  0.00000000E+00  0.00000000E+00
  0.00000000E+00  0.00000000E+00  0.00000000E+00
  0.00000000E+00  0.00000000E+00  0.00000000E+00
  0.00000000E+00  0.00000000E+00  0.00000000E+00
  0.00000000E+00  0.00000000E+00  0.00000000E+00
  0.00000000E+00  0.00000000E+00  0.00000000E+00
  0.00000000E+00  0.00000000E+00  0.00000000E+00
  0.00000000E+00  0.00000000E+00  0.00000000E+00
  0.00000000E+00  0.00000000E+00  0.00000000E+00
  0.00000000E+00  0.00000000E+00  0.00000000E+00
  0.00000000E+00  0.00000000E+00  0.00000000E+00
  0.00000000E+00  0.00000000E+00  0.00000000E+00
  0.00000000E+00  0.00000000E+00  0.00000000E+00
  0.00000000E+00  0.00000000E+00  0.00000000E+00
  0.00000000E+00  0.00000000E+00  0.00000000E+00
  0.00000000E+00  0.00000000E+00  0.00000000E+00
  0.00000000E+00  0.00000000E+00  0.00000000E+00
  0.00000000E+00  0.00000000E+00  0.00000000E+00
  0.00000000E+00  0.00000000E+00  0.00000000E+00
  0.00000000E+00  0.00000000E+00  0.00000000E+00
  0.00000000E+00  0.00000000E+00  0.00000000E+00
  0.00000000E+00  0.00000000E+00  0.00000000E+00
  0.00000000E+00  0.00000000E+00  0.00000000E+00
  0.00000000E+00  0.00000000E+00  0.00000000E+00
  0.00000000E+00  0.00000000E+00  0.00000000E+00
  0.00000000E+00  0.00000000E+00  0.00000000E+00
  0.00000000E+00  0.00000000E+00  0.00000000E+00
  0.00000000E+00  0.00000000E+00  0.00000000E+00
  0.00000000E+00  0.00000000E+00  0.00000000E+00
  0.00000000E+00  0.00000000E+00  0.00000000E+00
  0.00000000E+00  0.00000000E+00  0.00000000E+00
