63-TiZrTaCrMo                           
   1.00000000000000     
     8.9272590115848800    0.0155932012415538   -0.0257612612290324
     0.0220399668847379    8.8777486392778204    0.0052065482708143
     0.0061844538271276   -0.0101750080306973    8.8538411022856316
  Zr              Ta              Ti              N               C               Cr              Mo            
     7     6     7    13    19     6     6
Direct
  0.0020639716286687  0.9981800572701672  0.9940347350832006
  0.2713191321200026  0.9990685516024467  0.2462201669574208
  0.2465692563721646  0.4975865756127332  0.2482909206949961
  0.4985309637792933  0.5000710601895922  0.0003069805256314
  0.5045359998185317  0.2461386863806412  0.7413574639552005
  0.0001084601287296  0.5027021464501108  0.5006844035307051
  0.4940158002203995  0.7583248439509978  0.7481869506492087
  0.9896128431991935  0.2388284161301135  0.2474175514705410
  0.7531886051395312  0.7448670508164240  0.0105739934836413
  0.0023149893688629  0.2493225777442236  0.7538096347263700
  0.7520299627192509  0.2434389381641132  0.4976019224057675
  0.9997305846434514  0.7496921072368709  0.7497362202062373
  0.2498858989406233  0.4930130345665465  0.7500793706118101
  0.2698265025432581  0.2411577071796149  0.0023578487206379
  0.5136748875119003  0.2505352348449943  0.2524523199316357
  0.7424202395065845  0.9894533068967352  0.2508826650211071
  0.7398530026173452  0.2404011758436336  0.9998244629501907
  0.2464930177792101  0.7454430335885008  0.9959434532507838
  0.2500202418107231  0.2458078916935404  0.5014345616296377
  0.2494269205165597  0.7532857369154008  0.5096465495252316
  0.2489217779071836  0.2471959330092695  0.2495466552011551
  0.2617925946755351  0.9994480627298246  0.9893941654328550
  0.9985882844313242  0.2529630483967204  0.0016950761911336
  0.7466629030992087  0.2397523497565376  0.2456993778334557
  0.7396701857925179  0.9962060174857017  0.0055269000103743
  0.5126522221969644  0.0004803950798745  0.2774146809447800
  0.9913548814704428  0.4974220542922255  0.2436814697094852
  0.4984391682451410  0.7631293908791176  0.0075856246729288
  0.9860929772810074  0.0041324454607840  0.7392152373136656
  0.7569323468653674  0.2491762550213178  0.7498729675674450
  0.7642730981945662  0.0055437834349051  0.4911331254883611
  0.5004054980764527  0.2462832508589343  0.4901117044226652
  0.5252235919973437  0.0020304656006611  0.7398924649185599
  0.0017764286140126  0.0011887162851513  0.2504709326665012
  0.5048561621608312  0.2393057321318772  0.0060713737247634
  0.2539223709953370  0.7504057566646952  0.2500092515766084
  0.2392513917727487  0.4996600774676380  0.9956212918231740
  0.0033283350678282  0.7404479634106703  0.0047814018609040
  0.7490085761890608  0.7441551892910755  0.2527099242167560
  0.7623464102505382  0.4922800771545446  0.0062202093722530
  0.4970554844329004  0.5026076509864343  0.2512968114903053
  0.2489233567109741  0.2456773083555663  0.7537287536192726
  0.2511525184440657  0.0198026613700917  0.5127204691262934
  0.0045394404034160  0.2461552333820296  0.4999954580257409
  0.2416053617211227  0.7578086136467906  0.7513371227799546
  0.2558732390438250  0.5009118612186081  0.5022356703714321
  0.9975676548125644  0.7614241570559475  0.4987324534285205
  0.9989821269603444  0.5005051946756376  0.7534869269066705
  0.7508311116561471  0.7536214641326920  0.7473536755872953
  0.7426400312668993  0.4946147463320118  0.5066463140702783
  0.4939534581724750  0.7665281127271077  0.4856736242898752
  0.5038725212685065  0.5030713983966614  0.7416660323847073
  0.5126187109222775  0.0116614152308082  0.9658239990536817
  0.9978319553485003  0.5169567148655008  0.9777901265281219
  0.4763385805943804  0.7350859432663852  0.2580631819730366
  0.2249651815224062  0.0138844733488144  0.7502387982311161
  0.4776344300686308  0.9944230038934637  0.5152690900037761
  0.7401747685205476  0.9693620775913050  0.7840718019996559
  0.0145481135990452  0.7683320932807767  0.2547730677140615
  0.7396448807801865  0.4975486938093568  0.2525199822899937
  0.0132898312447571  0.0081036010115470  0.4957113314152402
  0.4973037350705445  0.5206464285505684  0.4908129767441768
  0.7528537749293732  0.5159160593430556  0.7637479638711615
  0.7446796228583884  0.7368257470399104  0.4888084938179489
 
  0.00000000E+00  0.00000000E+00  0.00000000E+00
  0.00000000E+00  0.00000000E+00  0.00000000E+00
  0.00000000E+00  0.00000000E+00  0.00000000E+00
  0.00000000E+00  0.00000000E+00  0.00000000E+00
  0.00000000E+00  0.00000000E+00  0.00000000E+00
  0.00000000E+00  0.00000000E+00  0.00000000E+00
  0.00000000E+00  0.00000000E+00  0.00000000E+00
  0.00000000E+00  0.00000000E+00  0.00000000E+00
  0.00000000E+00  0.00000000E+00  0.00000000E+00
  0.00000000E+00  0.00000000E+00  0.00000000E+00
  0.00000000E+00  0.00000000E+00  0.00000000E+00
  0.00000000E+00  0.00000000E+00  0.00000000E+00
  0.00000000E+00  0.00000000E+00  0.00000000E+00
  0.00000000E+00  0.00000000E+00  0.00000000E+00
  0.00000000E+00  0.00000000E+00  0.00000000E+00
  0.00000000E+00  0.00000000E+00  0.00000000E+00
  0.00000000E+00  0.00000000E+00  0.00000000E+00
  0.00000000E+00  0.00000000E+00  0.00000000E+00
  0.00000000E+00  0.00000000E+00  0.00000000E+00
  0.00000000E+00  0.00000000E+00  0.00000000E+00
  0.00000000E+00  0.00000000E+00  0.00000000E+00
  0.00000000E+00  0.00000000E+00  0.00000000E+00
  0.00000000E+00  0.00000000E+00  0.00000000E+00
  0.00000000E+00  0.00000000E+00  0.00000000E+00
  0.00000000E+00  0.00000000E+00  0.00000000E+00
  0.00000000E+00  0.00000000E+00  0.00000000E+00
  0.00000000E+00  0.00000000E+00  0.00000000E+00
  0.00000000E+00  0.00000000E+00  0.00000000E+00
  0.00000000E+00  0.00000000E+00  0.00000000E+00
  0.00000000E+00  0.00000000E+00  0.00000000E+00
  0.00000000E+00  0.00000000E+00  0.00000000E+00
  0.00000000E+00  0.00000000E+00  0.00000000E+00
  0.00000000E+00  0.00000000E+00  0.00000000E+00
  0.00000000E+00  0.00000000E+00  0.00000000E+00
  0.00000000E+00  0.00000000E+00  0.00000000E+00
  0.00000000E+00  0.00000000E+00  0.00000000E+00
  0.00000000E+00  0.00000000E+00  0.00000000E+00
  0.00000000E+00  0.00000000E+00  0.00000000E+00
  0.00000000E+00  0.00000000E+00  0.00000000E+00
  0.00000000E+00  0.00000000E+00  0.00000000E+00
  0.00000000E+00  0.00000000E+00  0.00000000E+00
  0.00000000E+00  0.00000000E+00  0.00000000E+00
  0.00000000E+00  0.00000000E+00  0.00000000E+00
  0.00000000E+00  0.00000000E+00  0.00000000E+00
  0.00000000E+00  0.00000000E+00  0.00000000E+00
  0.00000000E+00  0.00000000E+00  0.00000000E+00
  0.00000000E+00  0.00000000E+00  0.00000000E+00
  0.00000000E+00  0.00000000E+00  0.00000000E+00
  0.00000000E+00  0.00000000E+00  0.00000000E+00
  0.00000000E+00  0.00000000E+00  0.00000000E+00
  0.00000000E+00  0.00000000E+00  0.00000000E+00
  0.00000000E+00  0.00000000E+00  0.00000000E+00
  0.00000000E+00  0.00000000E+00  0.00000000E+00
  0.00000000E+00  0.00000000E+00  0.00000000E+00
  0.00000000E+00  0.00000000E+00  0.00000000E+00
  0.00000000E+00  0.00000000E+00  0.00000000E+00
  0.00000000E+00  0.00000000E+00  0.00000000E+00
  0.00000000E+00  0.00000000E+00  0.00000000E+00
  0.00000000E+00  0.00000000E+00  0.00000000E+00
  0.00000000E+00  0.00000000E+00  0.00000000E+00
  0.00000000E+00  0.00000000E+00  0.00000000E+00
  0.00000000E+00  0.00000000E+00  0.00000000E+00
  0.00000000E+00  0.00000000E+00  0.00000000E+00
  0.00000000E+00  0.00000000E+00  0.00000000E+00
