124-VNbCrMoW                            
   1.00000000000000     
     8.5983016448490268    0.0052327048494984    0.0049812859679444
     0.0109938662926765    8.6178457830719690    0.0145168246496066
     0.0357699192013991   -0.0004711770393215    8.6625994330846794
   Nb   W    V    N    C    Cr   Mo
     7     6     7    13    19     6     6
Direct
  0.0081055744455942  0.0093435414045599  0.9875898326499344
  0.2604902849923874  0.9972402966813749  0.2448422627552460
  0.2523374317150947  0.4992785664408583  0.2486615121751196
  0.5032259892133090  0.4994623386113071  0.0014179151748433
  0.5071396815484743  0.2423427206865592  0.7515881993488823
 -0.0034040426883266  0.5002899033626873  0.5075974381920717
  0.4963348932032586  0.7609949570841651  0.7447122416574804
  0.9849198942564771  0.2317886671539227  0.2556326355753601
  0.7649996350331479  0.7466565253806743  0.0003528603923703
  0.0131712548862670  0.2355468026597430  0.7523264356133956
  0.7600668365284483  0.2394913650136882  0.4837488923453110
  0.0042757634630248  0.7380704148433568  0.7541825529160588
  0.2542893700293593  0.5024352088980604  0.7509204760715941
  0.2647050429955333  0.2492510488934779  0.9843972910368830
  0.5199722779941641  0.2300913570602493  0.2629459381592011
  0.7353505274444486  0.0121099570542575  0.2812670416792293
  0.7355161351389027  0.2473644723498461  0.9820133776336472
  0.2381522349056321  0.7427220420050985  0.0030401334609978
  0.2499688827341033  0.2539638942041779  0.5139655941901108
  0.2527554510889632  0.7427353853247122  0.4947756462937379
  0.2464583670443862  0.2461422656554940  0.2486789886678148
  0.2653981286909803 -0.0001794948778415  0.9964863112895058
  0.0055552025321254  0.2575019939062448  0.0085645088994290
  0.7470337397497343  0.2484281161292168  0.2325563321229483
  0.7486046192095479  0.0012547064582335 -0.0010458092655311
  0.5068524644073091  0.9945017341342144  0.2447838629364292
  0.9978439525379427  0.4906582181878525  0.2526225001544445
  0.5007082880018197  0.7567569968662609 -0.0025007522206688
  0.9911171840882292 -0.0111580352342876  0.7393370724181846
  0.7602895653053965  0.2302235282681427  0.7418789977807504
  0.7405003417089875 -0.0010094631204369  0.5055995541031884
  0.5020961948806217  0.2478537475381515  0.4939524652328059
  0.4902967989942095  0.0026165186281978  0.7442465493138983
  0.9918342637075105 -0.0022553078297462  0.2441909619287760
  0.5014133554525412  0.2462649361024814  0.0078340934143555
  0.2596570335467899  0.7480282842801201  0.2474032354069957
  0.2413122402744902  0.4976646985561842  0.9971474116833554
  0.0068723620765487  0.7478920038903202  0.0057699685976857
  0.7393811880213356  0.7641697118587374  0.2440722091175887
  0.7629687098370193  0.4916510279670928  0.0085045326841722
  0.4981511506046480  0.4957093515752129  0.2493992527347731
  0.2568163612232622  0.2441845450792454  0.7483563421146403
  0.2562890910127389  0.0006193082238433  0.5096255374355688
  0.0086637965219399  0.2471190680542797  0.5018014502530919
  0.2470953687543063  0.7599347790673698  0.7503117313204192
  0.2512685346951226  0.4980766372622209  0.5016068844072459
  0.0056982648126995  0.7506691390736790  0.5044023397216404
  0.9991258821820924  0.4874941483122928  0.7557523069577020
  0.7526738936600014  0.7660319464593868  0.7481860990964579
  0.7469021908494131  0.4893260166873972  0.5053880452749124
  0.4951065835468456  0.7683977758494535  0.4932023396759773
  0.4994129850334089  0.5025007594476404  0.7474966735136143
  0.5158646885662073  0.0178141303323185  0.9806215395477899
 -0.0064107197793228  0.5199020110565875  0.9734924374799491
  0.5005696209653392  0.7365015389470173  0.2753909294873333
  0.2209647233846386  0.0102721236363077  0.7744545501352370
  0.4719323089965894  0.0141636032125721  0.4844143317880183
  0.7171610249551694  0.9973754318312267  0.7785293010484474
  0.0038614231551162  0.7626571443505443  0.2582246576017930
  0.7350103719225581  0.5200967549888665  0.2537372151597313
  0.0221097383321976 -0.0028219168045780  0.4913842641319874
  0.5001819485370848  0.5173431913195472  0.4929829311020729
  0.7457518191815122  0.5162341348040360  0.7603544976409593
  0.7472322058906221  0.7422124757561269  0.4948232067830566
 
  0.00000000E+00  0.00000000E+00  0.00000000E+00
  0.00000000E+00  0.00000000E+00  0.00000000E+00
  0.00000000E+00  0.00000000E+00  0.00000000E+00
  0.00000000E+00  0.00000000E+00  0.00000000E+00
  0.00000000E+00  0.00000000E+00  0.00000000E+00
  0.00000000E+00  0.00000000E+00  0.00000000E+00
  0.00000000E+00  0.00000000E+00  0.00000000E+00
  0.00000000E+00  0.00000000E+00  0.00000000E+00
  0.00000000E+00  0.00000000E+00  0.00000000E+00
  0.00000000E+00  0.00000000E+00  0.00000000E+00
  0.00000000E+00  0.00000000E+00  0.00000000E+00
  0.00000000E+00  0.00000000E+00  0.00000000E+00
  0.00000000E+00  0.00000000E+00  0.00000000E+00
  0.00000000E+00  0.00000000E+00  0.00000000E+00
  0.00000000E+00  0.00000000E+00  0.00000000E+00
  0.00000000E+00  0.00000000E+00  0.00000000E+00
  0.00000000E+00  0.00000000E+00  0.00000000E+00
  0.00000000E+00  0.00000000E+00  0.00000000E+00
  0.00000000E+00  0.00000000E+00  0.00000000E+00
  0.00000000E+00  0.00000000E+00  0.00000000E+00
  0.00000000E+00  0.00000000E+00  0.00000000E+00
  0.00000000E+00  0.00000000E+00  0.00000000E+00
  0.00000000E+00  0.00000000E+00  0.00000000E+00
  0.00000000E+00  0.00000000E+00  0.00000000E+00
  0.00000000E+00  0.00000000E+00  0.00000000E+00
  0.00000000E+00  0.00000000E+00  0.00000000E+00
  0.00000000E+00  0.00000000E+00  0.00000000E+00
  0.00000000E+00  0.00000000E+00  0.00000000E+00
  0.00000000E+00  0.00000000E+00  0.00000000E+00
  0.00000000E+00  0.00000000E+00  0.00000000E+00
  0.00000000E+00  0.00000000E+00  0.00000000E+00
  0.00000000E+00  0.00000000E+00  0.00000000E+00
  0.00000000E+00  0.00000000E+00  0.00000000E+00
  0.00000000E+00  0.00000000E+00  0.00000000E+00
  0.00000000E+00  0.00000000E+00  0.00000000E+00
  0.00000000E+00  0.00000000E+00  0.00000000E+00
  0.00000000E+00  0.00000000E+00  0.00000000E+00
  0.00000000E+00  0.00000000E+00  0.00000000E+00
  0.00000000E+00  0.00000000E+00  0.00000000E+00
  0.00000000E+00  0.00000000E+00  0.00000000E+00
  0.00000000E+00  0.00000000E+00  0.00000000E+00
  0.00000000E+00  0.00000000E+00  0.00000000E+00
  0.00000000E+00  0.00000000E+00  0.00000000E+00
  0.00000000E+00  0.00000000E+00  0.00000000E+00
  0.00000000E+00  0.00000000E+00  0.00000000E+00
  0.00000000E+00  0.00000000E+00  0.00000000E+00
  0.00000000E+00  0.00000000E+00  0.00000000E+00
  0.00000000E+00  0.00000000E+00  0.00000000E+00
  0.00000000E+00  0.00000000E+00  0.00000000E+00
  0.00000000E+00  0.00000000E+00  0.00000000E+00
  0.00000000E+00  0.00000000E+00  0.00000000E+00
  0.00000000E+00  0.00000000E+00  0.00000000E+00
  0.00000000E+00  0.00000000E+00  0.00000000E+00
  0.00000000E+00  0.00000000E+00  0.00000000E+00
  0.00000000E+00  0.00000000E+00  0.00000000E+00
  0.00000000E+00  0.00000000E+00  0.00000000E+00
  0.00000000E+00  0.00000000E+00  0.00000000E+00
  0.00000000E+00  0.00000000E+00  0.00000000E+00
  0.00000000E+00  0.00000000E+00  0.00000000E+00
  0.00000000E+00  0.00000000E+00  0.00000000E+00
  0.00000000E+00  0.00000000E+00  0.00000000E+00
  0.00000000E+00  0.00000000E+00  0.00000000E+00
  0.00000000E+00  0.00000000E+00  0.00000000E+00
  0.00000000E+00  0.00000000E+00  0.00000000E+00
