TiZrHfVMo                               
   1.00000000000000     
     8.8778828802017493    0.0002225390119145    0.0246226216984211
     0.0003065993222598    8.9532762121437699   -0.0019683213351602
     0.0245496600801090   -0.0018978172922267    8.8644173233975074
  Ti              Mo              Hf              N               C               Zr              V             
     7     6     6    13    19     7     6
Direct
  0.9959425227929708  0.9975857817337739  0.0103221752019122
  0.2413238204314175  0.9957656960221652  0.2540943436040048
  0.2589178227969127  0.5054144606682097  0.2523528077544770
  0.4998068163049277  0.5036446719766292  0.0007689677485326
  0.4927280706852568  0.2612530038866837  0.7480840164904216
  0.9995700120824190  0.4978743138196716  0.4890044800866133
  0.5058479133344468  0.7388619508970551  0.7475828350711583
  0.9912523724914041  0.2315356474241242  0.2655543093773153
  0.7604862999793049  0.7384448269551840  0.9836848974674309
  0.0178391881547284  0.2781127746244963  0.7462558557580554
  0.7611332044390030  0.2749018843612397  0.4847608439418187
  0.9883793901824079  0.7215467120100517  0.7437923937628982
  0.2671606009436965  0.5001924761693611  0.7484112905368797
  0.2459188331050976  0.2523951189284871  0.0024227867975511
  0.5027408937358326  0.2549551628288597  0.2517403629000248
  0.7565772613704952  0.9941975911106991  0.2546079119803993
  0.7527814388509070  0.2598072304395119  0.9924336308537610
  0.2428655830356185  0.7482477761307924  0.0013834569631138
  0.2475109314025386  0.2533253685192483  0.4998265370007177
  0.2481172744688082  0.2472883169738190  0.2521618152635531
  0.2445897689196370  0.0006369171825716  0.0067217861987042
  0.9998945691490033  0.2411716995224930  0.0056820550251770
  0.7504565209952769  0.2532049739484525  0.2462004545679458
  0.7570419617214564  0.0053885001252899  0.9991123860097819
  0.5015693309985315  0.0035010507528191  0.2482787055486207
  0.9999755480008444  0.4904901099346499  0.2603403883762186
  0.4979268061056659  0.7455398828869847  0.9931375263525267
  0.9986189107549026  0.0068872977541041  0.7536086287452781
  0.7479969452564499  0.2578329705810544  0.7446877490468073
  0.7565481345634649  0.0107060076036686  0.4956826473229721
  0.5022264866829841  0.2548523030714771  0.5033965840396533
  0.5043820160749598  0.0008555403534209  0.7493914382112802
  0.0030614990185090  0.9923455834851975  0.2513135099638147
  0.5012184225580615  0.2537232361225746  0.9963680560507572
  0.2410517413695408  0.7499658781258361  0.2499360287152207
  0.2551395454209500  0.4996028421300410  0.0056704975618500
  0.9938177477795650  0.7560065973544747  0.0034015987381362
  0.7620883688400323  0.7385013806686613  0.2530487580027410
  0.7433572814336503  0.5052725466885055  0.9998792672073518
  0.5035977300808564  0.4990878177758563  0.2527649564821627
  0.2553591009473840  0.2541892634654388  0.7506653000107917
  0.2401850866207162  0.0022223478491655  0.4933516198998230
  0.9947051404770789  0.2493293058472867  0.5080197057946124
  0.2499704650985079  0.7441700600816867  0.7523938820773711
  0.2536975861527454  0.4986399608809400  0.4978525575964455
  0.9872486745465648  0.7513479785881357  0.4963679382392452
  0.9983193102496167  0.5004909234761020  0.7438484444385018
  0.7460922417954019  0.7406799568196504  0.7416390336107308
  0.7495957720031300  0.5033663683776635  0.5007849043609837
  0.5078849832636988  0.7392902947336293  0.5061310993885534
  0.5051027151120585  0.5001834481149072  0.7479837675229488
  0.5030088155391452  0.9999010010076176  0.9953141784706384
  0.9976565872055072  0.5025760270089142  0.0127718432927579
  0.5058545495984691  0.7454866256069748  0.2504808881532991
  0.2385430507267117  0.9977641486359428  0.7492945451466826
  0.4997036323151722  0.9954566647515872  0.5023521842256200
  0.7630063875320278  0.0001118251176084  0.7389518998212101
  0.2439609303238669  0.7458966925229310  0.5016520408601236
  0.9968605696232792  0.7685474839024022  0.2638587942032565
  0.7370299935988587  0.5038067075105300  0.2532094818695892
  0.0027848616830438  0.0039362594906012  0.4822772350637997
  0.4982228325295436  0.5055386630855009  0.4986969620019195
  0.7305741759911918  0.5075379678140610  0.7570769813548389
  0.7531736227537978  0.7186067957625817  0.5071566438686740
 
  0.00000000E+00  0.00000000E+00  0.00000000E+00
  0.00000000E+00  0.00000000E+00  0.00000000E+00
  0.00000000E+00  0.00000000E+00  0.00000000E+00
  0.00000000E+00  0.00000000E+00  0.00000000E+00
  0.00000000E+00  0.00000000E+00  0.00000000E+00
  0.00000000E+00  0.00000000E+00  0.00000000E+00
  0.00000000E+00  0.00000000E+00  0.00000000E+00
  0.00000000E+00  0.00000000E+00  0.00000000E+00
  0.00000000E+00  0.00000000E+00  0.00000000E+00
  0.00000000E+00  0.00000000E+00  0.00000000E+00
  0.00000000E+00  0.00000000E+00  0.00000000E+00
  0.00000000E+00  0.00000000E+00  0.00000000E+00
  0.00000000E+00  0.00000000E+00  0.00000000E+00
  0.00000000E+00  0.00000000E+00  0.00000000E+00
  0.00000000E+00  0.00000000E+00  0.00000000E+00
  0.00000000E+00  0.00000000E+00  0.00000000E+00
  0.00000000E+00  0.00000000E+00  0.00000000E+00
  0.00000000E+00  0.00000000E+00  0.00000000E+00
  0.00000000E+00  0.00000000E+00  0.00000000E+00
  0.00000000E+00  0.00000000E+00  0.00000000E+00
  0.00000000E+00  0.00000000E+00  0.00000000E+00
  0.00000000E+00  0.00000000E+00  0.00000000E+00
  0.00000000E+00  0.00000000E+00  0.00000000E+00
  0.00000000E+00  0.00000000E+00  0.00000000E+00
  0.00000000E+00  0.00000000E+00  0.00000000E+00
  0.00000000E+00  0.00000000E+00  0.00000000E+00
  0.00000000E+00  0.00000000E+00  0.00000000E+00
  0.00000000E+00  0.00000000E+00  0.00000000E+00
  0.00000000E+00  0.00000000E+00  0.00000000E+00
  0.00000000E+00  0.00000000E+00  0.00000000E+00
  0.00000000E+00  0.00000000E+00  0.00000000E+00
  0.00000000E+00  0.00000000E+00  0.00000000E+00
  0.00000000E+00  0.00000000E+00  0.00000000E+00
  0.00000000E+00  0.00000000E+00  0.00000000E+00
  0.00000000E+00  0.00000000E+00  0.00000000E+00
  0.00000000E+00  0.00000000E+00  0.00000000E+00
  0.00000000E+00  0.00000000E+00  0.00000000E+00
  0.00000000E+00  0.00000000E+00  0.00000000E+00
  0.00000000E+00  0.00000000E+00  0.00000000E+00
  0.00000000E+00  0.00000000E+00  0.00000000E+00
  0.00000000E+00  0.00000000E+00  0.00000000E+00
  0.00000000E+00  0.00000000E+00  0.00000000E+00
  0.00000000E+00  0.00000000E+00  0.00000000E+00
  0.00000000E+00  0.00000000E+00  0.00000000E+00
  0.00000000E+00  0.00000000E+00  0.00000000E+00
  0.00000000E+00  0.00000000E+00  0.00000000E+00
  0.00000000E+00  0.00000000E+00  0.00000000E+00
  0.00000000E+00  0.00000000E+00  0.00000000E+00
  0.00000000E+00  0.00000000E+00  0.00000000E+00
  0.00000000E+00  0.00000000E+00  0.00000000E+00
  0.00000000E+00  0.00000000E+00  0.00000000E+00
  0.00000000E+00  0.00000000E+00  0.00000000E+00
  0.00000000E+00  0.00000000E+00  0.00000000E+00
  0.00000000E+00  0.00000000E+00  0.00000000E+00
  0.00000000E+00  0.00000000E+00  0.00000000E+00
  0.00000000E+00  0.00000000E+00  0.00000000E+00
  0.00000000E+00  0.00000000E+00  0.00000000E+00
  0.00000000E+00  0.00000000E+00  0.00000000E+00
  0.00000000E+00  0.00000000E+00  0.00000000E+00
  0.00000000E+00  0.00000000E+00  0.00000000E+00
  0.00000000E+00  0.00000000E+00  0.00000000E+00
  0.00000000E+00  0.00000000E+00  0.00000000E+00
  0.00000000E+00  0.00000000E+00  0.00000000E+00
  0.00000000E+00  0.00000000E+00  0.00000000E+00
