78-ZrHfVCrW                             
   1.00000000000000     
     8.8265990887322836    0.0042863131374972   -0.0191423450723791
     0.0099532752056557    8.9251476275688510   -0.0293637523638409
     0.0125284908469849   -0.0445033107524202    8.8313679317314033
   Hf   V    Zr   N    C    Cr   W 
     7     6     7    13    19     6     6
Direct
  0.9917567939356010  0.9946913214402473  0.9882977105158411
  0.2603462366265036  0.9989565735372925  0.2520573687130979
  0.2401376147189409  0.4990667836668377  0.2433757521570794
  0.5001186719786143  0.5034435886419156  0.9949930137705076
  0.5099480986804218  0.2494925932639960  0.7404637555902320
 -0.0001813190915863  0.5036554534841683  0.4987501675968752
  0.5007016995403483  0.7527232739810723  0.7469930542377542
  0.9876930675634422  0.2227589573995697  0.2692643514638726
  0.7643885174954484  0.7402815072272375  0.0085668200300044
 -0.0014236869572639  0.2470922602965755  0.7236633179849247
  0.7540620663598093  0.2789678554180933  0.5047431969581638
  0.0037132885594497  0.7337822753750939  0.7627219704634824
  0.2311128671256563  0.4847913906424380  0.7571447336258211
  0.2413487010359821  0.2437955584995122  0.9948305104383376
  0.5081313488535728  0.2532126002173652  0.2508878687736116
  0.7396123731027504  0.9935474915594034  0.2705004877664063
  0.7592524792023909  0.2536209382974378  0.9922494222293092
  0.2539048399067085  0.7566033930006744  0.9973887147860612
  0.2524921543701778  0.2512206468135199  0.5009405098697152
  0.2473048918251462  0.7507913923955255  0.5060449366680311
  0.2451370975383148  0.2482996853715964  0.2489262944496461
  0.2480410372608532  0.0009522058561789  0.9991756402852660
 -0.0011226867234177  0.2407448513925737  0.0112419133796136
  0.7610487997449011  0.2522188130325486  0.2581271430321975
  0.7450617491945788  0.9908560186571478 -0.0076687470944527
  0.4975562249083165  0.9981750110398924  0.2774560333016482
  0.9915599025133388  0.4998998236479714  0.2461419148917343
  0.5115078804633907  0.7602211504116768 -0.0034321186168577
  0.9840556364046316  0.0117458826352112  0.7429256101555703
  0.7589656954974842  0.2626305455269857  0.7385300156512439
  0.7599716329714521 -0.0117867259659372  0.5157184269943415
  0.5124282449408828  0.2527253882314954  0.4997539137076685
  0.5315663681812045 -0.0012250776661739  0.7369192545004214
 -0.0012668340950993 -0.0003630979877543  0.2535667370951145
  0.5040790576455358  0.2380164122456133 -0.0071846629150220
  0.2515705629212163  0.7495814972570207  0.2512055544876975
  0.2406900143708277  0.5008775889837871  0.9903262419979522
  0.9963289654232486  0.7438862810828446  0.0021892468454298
  0.7444946615789788  0.7437259618028117  0.2457407740794521
  0.7633469217809643  0.5090939372578762  0.0039837215749142
  0.4955033809583202  0.5047546536583648  0.2464271154052306
  0.2411888228392347  0.2505715061321184  0.7476247959466226
  0.2507047776045158  0.0014075655818605  0.5145431592014876
  0.9906384457402080  0.2478917977098789  0.4996974562640301
  0.2379849345493216  0.7540624080765964  0.7523116957713559
  0.2546203517529124  0.5007216605722625  0.5043827267847938
  0.9897963706543833  0.7567447082166772  0.5070454669357228
  0.0039419711755040  0.4972474611399383  0.7562299474950318
  0.7595548361989105  0.7489762663735228  0.7539990401720206
  0.7492491293478035  0.4977879115085722  0.5022322143297944
  0.5049338575164318  0.7621449160729539  0.4922420885900458
  0.5058928149915786  0.5011930923306630  0.7410518148355812
  0.5270972570269515  0.0069932668878806  0.9530596815539814
  0.0001343117684856  0.5233865630090272  0.9809552017075428
  0.5032328852480376  0.7291065535472643  0.2676043473381658
  0.2129033349431719  0.0202116836933977  0.7400555053703686
  0.4709235288003182  0.9930949417887300  0.5234471359062083
  0.7471031081212721  0.9579188073269239  0.7617912916887136
  0.0003649776834469  0.7700369776837821  0.2500188736299836
  0.7376231957982397  0.5099434991513703  0.2490506893461791
  0.0108876992968952  0.0029195056944795  0.5061824488934362
  0.5056378754912296  0.5108003926108310  0.4896518767919091
  0.7639513207806170  0.5158000999450235  0.7614898229269064
  0.7466895503584767  0.7335115043165440  0.4913851676721993
 
  0.00000000E+00  0.00000000E+00  0.00000000E+00
  0.00000000E+00  0.00000000E+00  0.00000000E+00
  0.00000000E+00  0.00000000E+00  0.00000000E+00
  0.00000000E+00  0.00000000E+00  0.00000000E+00
  0.00000000E+00  0.00000000E+00  0.00000000E+00
  0.00000000E+00  0.00000000E+00  0.00000000E+00
  0.00000000E+00  0.00000000E+00  0.00000000E+00
  0.00000000E+00  0.00000000E+00  0.00000000E+00
  0.00000000E+00  0.00000000E+00  0.00000000E+00
  0.00000000E+00  0.00000000E+00  0.00000000E+00
  0.00000000E+00  0.00000000E+00  0.00000000E+00
  0.00000000E+00  0.00000000E+00  0.00000000E+00
  0.00000000E+00  0.00000000E+00  0.00000000E+00
  0.00000000E+00  0.00000000E+00  0.00000000E+00
  0.00000000E+00  0.00000000E+00  0.00000000E+00
  0.00000000E+00  0.00000000E+00  0.00000000E+00
  0.00000000E+00  0.00000000E+00  0.00000000E+00
  0.00000000E+00  0.00000000E+00  0.00000000E+00
  0.00000000E+00  0.00000000E+00  0.00000000E+00
  0.00000000E+00  0.00000000E+00  0.00000000E+00
  0.00000000E+00  0.00000000E+00  0.00000000E+00
  0.00000000E+00  0.00000000E+00  0.00000000E+00
  0.00000000E+00  0.00000000E+00  0.00000000E+00
  0.00000000E+00  0.00000000E+00  0.00000000E+00
  0.00000000E+00  0.00000000E+00  0.00000000E+00
  0.00000000E+00  0.00000000E+00  0.00000000E+00
  0.00000000E+00  0.00000000E+00  0.00000000E+00
  0.00000000E+00  0.00000000E+00  0.00000000E+00
  0.00000000E+00  0.00000000E+00  0.00000000E+00
  0.00000000E+00  0.00000000E+00  0.00000000E+00
  0.00000000E+00  0.00000000E+00  0.00000000E+00
  0.00000000E+00  0.00000000E+00  0.00000000E+00
  0.00000000E+00  0.00000000E+00  0.00000000E+00
  0.00000000E+00  0.00000000E+00  0.00000000E+00
  0.00000000E+00  0.00000000E+00  0.00000000E+00
  0.00000000E+00  0.00000000E+00  0.00000000E+00
  0.00000000E+00  0.00000000E+00  0.00000000E+00
  0.00000000E+00  0.00000000E+00  0.00000000E+00
  0.00000000E+00  0.00000000E+00  0.00000000E+00
  0.00000000E+00  0.00000000E+00  0.00000000E+00
  0.00000000E+00  0.00000000E+00  0.00000000E+00
  0.00000000E+00  0.00000000E+00  0.00000000E+00
  0.00000000E+00  0.00000000E+00  0.00000000E+00
  0.00000000E+00  0.00000000E+00  0.00000000E+00
  0.00000000E+00  0.00000000E+00  0.00000000E+00
  0.00000000E+00  0.00000000E+00  0.00000000E+00
  0.00000000E+00  0.00000000E+00  0.00000000E+00
  0.00000000E+00  0.00000000E+00  0.00000000E+00
  0.00000000E+00  0.00000000E+00  0.00000000E+00
  0.00000000E+00  0.00000000E+00  0.00000000E+00
  0.00000000E+00  0.00000000E+00  0.00000000E+00
  0.00000000E+00  0.00000000E+00  0.00000000E+00
  0.00000000E+00  0.00000000E+00  0.00000000E+00
  0.00000000E+00  0.00000000E+00  0.00000000E+00
  0.00000000E+00  0.00000000E+00  0.00000000E+00
  0.00000000E+00  0.00000000E+00  0.00000000E+00
  0.00000000E+00  0.00000000E+00  0.00000000E+00
  0.00000000E+00  0.00000000E+00  0.00000000E+00
  0.00000000E+00  0.00000000E+00  0.00000000E+00
  0.00000000E+00  0.00000000E+00  0.00000000E+00
  0.00000000E+00  0.00000000E+00  0.00000000E+00
  0.00000000E+00  0.00000000E+00  0.00000000E+00
  0.00000000E+00  0.00000000E+00  0.00000000E+00
  0.00000000E+00  0.00000000E+00  0.00000000E+00
