11-TiZrVNbTa                            
   1.00000000000000     
     8.8611220948968406    0.0025316642317162   -0.0074805320264352
     0.0083216196605503    8.8793037363440757   -0.0079365254157923
     0.0243765837711690   -0.0231251137556189    8.8658495531428585
  Zr              V               Ti              N               C               Nb              Ta            
     7     6     7    13    19     6     6
Direct
  0.9969825108814918  0.0048784790965509  0.9952663657190151
  0.2517379193111841  0.0056740141648701  0.2493790511006757
  0.2474729648109900  0.4942537320760583  0.2492482976247775
  0.4980729547276527  0.4999211860435891  0.9998798715623817
  0.5021377805968176  0.2461815357318025  0.7460922916378063
  0.0019868754965854  0.4991598690464066  0.4997211662211138
  0.4952651570110384  0.7522020973384270  0.7544998579841258
  0.9838343188350468  0.2296924247317609  0.2657294206830035
  0.7712716225274364  0.7392051656092840  0.9897432537623209
  0.0082631301780956  0.2677999618774276  0.7436480601662937
  0.7646914983432584  0.2556346072058326  0.4816115668556723
  0.0037534514069961  0.7232827685167080  0.7544976810964570
  0.2479990114018949  0.4923060230106779  0.7494278158552099
  0.2454801547157412  0.2531350979413530  0.9925801857365405
  0.5148048787104166  0.2512790430764321  0.2522948486042609
  0.7491635233788689  0.9991042261518294  0.2429285013768772
  0.7556298346308435  0.2577834365888571  0.0084555607899286
  0.2363120617416785  0.7445488182932063  0.9951581120688365
  0.2418000222777847  0.2508597756573491  0.5046021546836594
  0.2451821793355034  0.7502051659928364  0.5041380519287695
  0.2417431344255216  0.2494743687807403  0.2495727616573619
  0.2531370877803942  0.0020038693691786  0.9958626354601736
  0.0012506938468926  0.2528242593626575  0.0020073319713827
  0.7530850100769992  0.2485000875911705  0.2498258746047904
  0.7493293171185685  0.9999264899689178  0.0079921944484179
  0.5082076899393504  0.0076455028647094  0.2520977702193362
  0.9929574224176594  0.4972881295379585  0.2457452145958227
  0.4973210904505724  0.7549845889340975  0.0030265693041464
  0.9976751934842693  0.0105539655714613  0.7453634157751230
  0.7615511350733030  0.2500021865900979  0.7525195603903180
  0.7498343988868322  0.0041942920860887  0.4998309464379402
  0.5027180558795914  0.2505910895607668  0.4925831642248209
  0.4992745977769609  0.9994554804505604  0.7505209091945155
  0.9916513512996289  0.0034558135081021  0.2550133871971313
  0.5018750842429927  0.2458091707197712  0.0060436200009926
  0.2464018108058174  0.7503030985102859  0.2469600699190427
  0.2452847531386190  0.4981353315395663  0.9911405322871806
  0.9995134424693921  0.7465360202922563  0.9954656051209175
  0.7515488182665219  0.7520531762319973  0.2464537808356133
  0.7547965796720669  0.5016923615589746  0.0004157904283420
  0.5052202998040888  0.4952695158005786  0.2549711957230934
  0.2412773854379615  0.2541865908902252  0.7490290216799265
  0.2455845690671284  0.0015904827578846  0.5017400587665761
  0.9972047412885272  0.2470515192260319  0.5028925832692961
  0.2365339696919116  0.7470741188703428  0.7507413600886370
  0.2547959066445857  0.4975669343119152  0.5071323708347149
  0.0003896594494149  0.7559848398701410  0.5055674287430757
  0.0039887349946952  0.4976411016729402  0.7511592537566749
  0.7608244479454334  0.7486283186537909  0.7545766161897181
  0.7463325388535330  0.4948005578391706  0.4986097407655903
  0.4986589303492108  0.7480181298703727  0.4986970811959888
  0.5002248864707637  0.4982080053812939  0.7446661467796483
  0.5084391267454044  0.0074743910608111  0.0055463745699202
  0.0018006028962754  0.4969909449446450  0.9944352886292744
  0.4981350574611849  0.7507861377138192  0.2499067507338567
  0.2489021200250760  0.0044296523211593  0.7453106908721936
  0.4891858304119653  0.9934118110586729  0.4952150555854312
  0.7480125522503178  0.9959116351689327  0.7612927142671101
  0.0001691870890269  0.7619522295598566  0.2496373999765145
  0.7492099871281824  0.5043656174981908  0.2501832083117168
  0.0017489723344958  0.0040622262948650  0.5038603520280245
  0.4968421207539384  0.5026696713381146  0.5003767249606875
  0.7516252643584712  0.4983238901986276  0.7499964157670032
  0.7538949671771114  0.7510647175170048  0.5071130529742451
 
  0.00000000E+00  0.00000000E+00  0.00000000E+00
  0.00000000E+00  0.00000000E+00  0.00000000E+00
  0.00000000E+00  0.00000000E+00  0.00000000E+00
  0.00000000E+00  0.00000000E+00  0.00000000E+00
  0.00000000E+00  0.00000000E+00  0.00000000E+00
  0.00000000E+00  0.00000000E+00  0.00000000E+00
  0.00000000E+00  0.00000000E+00  0.00000000E+00
  0.00000000E+00  0.00000000E+00  0.00000000E+00
  0.00000000E+00  0.00000000E+00  0.00000000E+00
  0.00000000E+00  0.00000000E+00  0.00000000E+00
  0.00000000E+00  0.00000000E+00  0.00000000E+00
  0.00000000E+00  0.00000000E+00  0.00000000E+00
  0.00000000E+00  0.00000000E+00  0.00000000E+00
  0.00000000E+00  0.00000000E+00  0.00000000E+00
  0.00000000E+00  0.00000000E+00  0.00000000E+00
  0.00000000E+00  0.00000000E+00  0.00000000E+00
  0.00000000E+00  0.00000000E+00  0.00000000E+00
  0.00000000E+00  0.00000000E+00  0.00000000E+00
  0.00000000E+00  0.00000000E+00  0.00000000E+00
  0.00000000E+00  0.00000000E+00  0.00000000E+00
  0.00000000E+00  0.00000000E+00  0.00000000E+00
  0.00000000E+00  0.00000000E+00  0.00000000E+00
  0.00000000E+00  0.00000000E+00  0.00000000E+00
  0.00000000E+00  0.00000000E+00  0.00000000E+00
  0.00000000E+00  0.00000000E+00  0.00000000E+00
  0.00000000E+00  0.00000000E+00  0.00000000E+00
  0.00000000E+00  0.00000000E+00  0.00000000E+00
  0.00000000E+00  0.00000000E+00  0.00000000E+00
  0.00000000E+00  0.00000000E+00  0.00000000E+00
  0.00000000E+00  0.00000000E+00  0.00000000E+00
  0.00000000E+00  0.00000000E+00  0.00000000E+00
  0.00000000E+00  0.00000000E+00  0.00000000E+00
  0.00000000E+00  0.00000000E+00  0.00000000E+00
  0.00000000E+00  0.00000000E+00  0.00000000E+00
  0.00000000E+00  0.00000000E+00  0.00000000E+00
  0.00000000E+00  0.00000000E+00  0.00000000E+00
  0.00000000E+00  0.00000000E+00  0.00000000E+00
  0.00000000E+00  0.00000000E+00  0.00000000E+00
  0.00000000E+00  0.00000000E+00  0.00000000E+00
  0.00000000E+00  0.00000000E+00  0.00000000E+00
  0.00000000E+00  0.00000000E+00  0.00000000E+00
  0.00000000E+00  0.00000000E+00  0.00000000E+00
  0.00000000E+00  0.00000000E+00  0.00000000E+00
  0.00000000E+00  0.00000000E+00  0.00000000E+00
  0.00000000E+00  0.00000000E+00  0.00000000E+00
  0.00000000E+00  0.00000000E+00  0.00000000E+00
  0.00000000E+00  0.00000000E+00  0.00000000E+00
  0.00000000E+00  0.00000000E+00  0.00000000E+00
  0.00000000E+00  0.00000000E+00  0.00000000E+00
  0.00000000E+00  0.00000000E+00  0.00000000E+00
  0.00000000E+00  0.00000000E+00  0.00000000E+00
  0.00000000E+00  0.00000000E+00  0.00000000E+00
  0.00000000E+00  0.00000000E+00  0.00000000E+00
  0.00000000E+00  0.00000000E+00  0.00000000E+00
  0.00000000E+00  0.00000000E+00  0.00000000E+00
  0.00000000E+00  0.00000000E+00  0.00000000E+00
  0.00000000E+00  0.00000000E+00  0.00000000E+00
  0.00000000E+00  0.00000000E+00  0.00000000E+00
  0.00000000E+00  0.00000000E+00  0.00000000E+00
  0.00000000E+00  0.00000000E+00  0.00000000E+00
  0.00000000E+00  0.00000000E+00  0.00000000E+00
  0.00000000E+00  0.00000000E+00  0.00000000E+00
  0.00000000E+00  0.00000000E+00  0.00000000E+00
  0.00000000E+00  0.00000000E+00  0.00000000E+00
