11-TiZrVNbTa                            
   1.00000000000000     
     8.8603279547197946    0.0024207032949699   -0.0081633566178381
     0.0082100248783381    8.8837607101445375   -0.0066629332048237
     0.0236898226047509   -0.0218677354856114    8.8637935697191690
   Zr   V    Ti   N    C    Nb   Ta
     7     6     7    13    19     6     6
Direct
  0.9954694017052228  0.0062207967650433  0.9965720906848261
  0.2517666323159913  0.0054566076705473  0.2493932720699398
  0.2483850881661610  0.4936195791166087  0.2481862298927986
  0.4976533790132137  0.4994803535793462 -0.0010262542236786
  0.5014987910474298  0.2464354777075298  0.7460531768536247
  0.0033740487725164  0.5006844374618469  0.5009311904335849
  0.4944934789800656  0.7522681345324529  0.7546420915541265
  0.9815168211753098  0.2312004816753603  0.2699541637105050
  0.7703532896226696  0.7354843158421704 -0.0014484371474945
  0.0074481871348870  0.2686673145044639  0.7382103792647676
  0.7640164200552542  0.2593776156589047  0.4940604665268105
  0.0003315057709930  0.7274447028965992  0.7556520364574736
  0.2475714969076904  0.4906019362744586  0.7497361288409273
  0.2458558291048543  0.2521636850014771  0.9934433707709514
  0.5165283275001781  0.2500299937182264  0.2514616371391265
  0.7500048536035493  0.0011248273048304  0.2454179085434260
  0.7548302420450710  0.2585051115212708  0.9995157298003458
  0.2352161106266226  0.7453474199818603  0.9942743150338292
  0.2439020404315639  0.2510226183416178  0.5026222496411750
  0.2461430480404654  0.7500476839076897  0.5034444767308304
  0.2449965169061578  0.2489055508544727  0.2490491772982623
  0.2539338033815414  0.0021197478338206  0.9948241350941115
  0.0012374330891586  0.2536563844344892  0.0007640792413303
  0.7531907998048046  0.2478832307252169  0.2527731276906096
  0.7484065199935170  0.0024255785921864  0.0064359781470991
  0.5079546255728725  0.0057434108769009  0.2522868021559914
  0.9934713015581398  0.4955048222776965  0.2457364039707456
  0.4973663077300886  0.7561194944426994  0.0041331973220532
  0.9974841222493929  0.0071324806631781  0.7457026175260439
  0.7623547102051057  0.2495787275031608  0.7507072878476584
  0.7488025662102280  0.0029035219390422  0.5010713566419118
  0.5028489483981957  0.2493001908894950  0.4932260257303240
  0.5005324886025267 -0.0003775131071956  0.7506081459393467
  0.9923495668791918  0.0041820160285505  0.2556959713032190
  0.5020621667654508  0.2460077244003222  0.0048648647264083
  0.2476424892880843  0.7497987005715879  0.2466982477773615
  0.2447153588142368  0.4983028122335976  0.9913574274386475
  0.9980556142561205  0.7462563042809596 -0.0029511354410258
  0.7507702346572687  0.7513684126014654  0.2463135230720339
  0.7550654215700351  0.5010908695752848  0.0008084899993932
  0.5054122505751417  0.4960118601985501  0.2538222112836000
  0.2414300246235098  0.2535449363245723  0.7480763791148575
  0.2475994683395402  0.0008533526287001  0.5016832988175662
  0.9989207660709899  0.2474457730996999  0.5029395641772483
  0.2363399208261526  0.7492584535927939  0.7504234365294945
  0.2545011949585228  0.4977942030248785  0.5062484655765613
 -0.0012363157075002  0.7558206275194495  0.5051657081369929
  0.0030951048721643  0.4991609488279614  0.7513015375443586
  0.7584633973295632  0.7506384593300955  0.7553077505075931
  0.7472397620701734  0.4947566591942759  0.4991662353004363
  0.4983671637816967  0.7487584560856703  0.4980910778622598
  0.5003159233694786  0.4986100343948580  0.7445385965762218
  0.5097049113881336  0.0082779414450444  0.0047781838359375
  0.0018500155948947  0.4966102350524542  0.9942912719901715
  0.4975368182618888  0.7507777961251128  0.2485666135934342
  0.2463541186918836  0.0050286265025160  0.7454724931427850
  0.4909827775424085  0.9935755960496233  0.4954259348842405
  0.7510219048928597  0.9925282529971324  0.7588640726396851
  0.0003673669650694  0.7616873641944143  0.2491491125256561
  0.7494193412204818  0.5013319574757757  0.2505044287375122
  0.0031021745379851  0.0022199876457765  0.5031538892832494
  0.4964653251533840  0.5022559449280298  0.5004625602829323
  0.7518205597862870  0.5019180695947685  0.7496241652658336
  0.7513264129034447  0.7480486536886158  0.5017412023319694
 
  0.00000000E+00  0.00000000E+00  0.00000000E+00
  0.00000000E+00  0.00000000E+00  0.00000000E+00
  0.00000000E+00  0.00000000E+00  0.00000000E+00
  0.00000000E+00  0.00000000E+00  0.00000000E+00
  0.00000000E+00  0.00000000E+00  0.00000000E+00
  0.00000000E+00  0.00000000E+00  0.00000000E+00
  0.00000000E+00  0.00000000E+00  0.00000000E+00
  0.00000000E+00  0.00000000E+00  0.00000000E+00
  0.00000000E+00  0.00000000E+00  0.00000000E+00
  0.00000000E+00  0.00000000E+00  0.00000000E+00
  0.00000000E+00  0.00000000E+00  0.00000000E+00
  0.00000000E+00  0.00000000E+00  0.00000000E+00
  0.00000000E+00  0.00000000E+00  0.00000000E+00
  0.00000000E+00  0.00000000E+00  0.00000000E+00
  0.00000000E+00  0.00000000E+00  0.00000000E+00
  0.00000000E+00  0.00000000E+00  0.00000000E+00
  0.00000000E+00  0.00000000E+00  0.00000000E+00
  0.00000000E+00  0.00000000E+00  0.00000000E+00
  0.00000000E+00  0.00000000E+00  0.00000000E+00
  0.00000000E+00  0.00000000E+00  0.00000000E+00
  0.00000000E+00  0.00000000E+00  0.00000000E+00
  0.00000000E+00  0.00000000E+00  0.00000000E+00
  0.00000000E+00  0.00000000E+00  0.00000000E+00
  0.00000000E+00  0.00000000E+00  0.00000000E+00
  0.00000000E+00  0.00000000E+00  0.00000000E+00
  0.00000000E+00  0.00000000E+00  0.00000000E+00
  0.00000000E+00  0.00000000E+00  0.00000000E+00
  0.00000000E+00  0.00000000E+00  0.00000000E+00
  0.00000000E+00  0.00000000E+00  0.00000000E+00
  0.00000000E+00  0.00000000E+00  0.00000000E+00
  0.00000000E+00  0.00000000E+00  0.00000000E+00
  0.00000000E+00  0.00000000E+00  0.00000000E+00
  0.00000000E+00  0.00000000E+00  0.00000000E+00
  0.00000000E+00  0.00000000E+00  0.00000000E+00
  0.00000000E+00  0.00000000E+00  0.00000000E+00
  0.00000000E+00  0.00000000E+00  0.00000000E+00
  0.00000000E+00  0.00000000E+00  0.00000000E+00
  0.00000000E+00  0.00000000E+00  0.00000000E+00
  0.00000000E+00  0.00000000E+00  0.00000000E+00
  0.00000000E+00  0.00000000E+00  0.00000000E+00
  0.00000000E+00  0.00000000E+00  0.00000000E+00
  0.00000000E+00  0.00000000E+00  0.00000000E+00
  0.00000000E+00  0.00000000E+00  0.00000000E+00
  0.00000000E+00  0.00000000E+00  0.00000000E+00
  0.00000000E+00  0.00000000E+00  0.00000000E+00
  0.00000000E+00  0.00000000E+00  0.00000000E+00
  0.00000000E+00  0.00000000E+00  0.00000000E+00
  0.00000000E+00  0.00000000E+00  0.00000000E+00
  0.00000000E+00  0.00000000E+00  0.00000000E+00
  0.00000000E+00  0.00000000E+00  0.00000000E+00
  0.00000000E+00  0.00000000E+00  0.00000000E+00
  0.00000000E+00  0.00000000E+00  0.00000000E+00
  0.00000000E+00  0.00000000E+00  0.00000000E+00
  0.00000000E+00  0.00000000E+00  0.00000000E+00
  0.00000000E+00  0.00000000E+00  0.00000000E+00
  0.00000000E+00  0.00000000E+00  0.00000000E+00
  0.00000000E+00  0.00000000E+00  0.00000000E+00
  0.00000000E+00  0.00000000E+00  0.00000000E+00
  0.00000000E+00  0.00000000E+00  0.00000000E+00
  0.00000000E+00  0.00000000E+00  0.00000000E+00
  0.00000000E+00  0.00000000E+00  0.00000000E+00
  0.00000000E+00  0.00000000E+00  0.00000000E+00
  0.00000000E+00  0.00000000E+00  0.00000000E+00
  0.00000000E+00  0.00000000E+00  0.00000000E+00
