114-TiVCrMoW                            
   1.00000000000000     
     8.5278853935280274    0.0088833313383238   -0.0198225210390450
     0.0144599552508325    8.4989541805865212   -0.0023917538977822
     0.0108646047159517   -0.0172422250407678    8.5486952327916192
   V    W    Ti   N    C    Cr   Mo
     7     6     7    13    19     6     6
Direct
  0.0074357123594406  0.9853270817688454  0.0166419648634635
  0.2591789046478308  0.9835084294432137  0.2556268162123936
  0.2665214685584433  0.5164922273653861  0.2414017228491542
  0.4997064974868988  0.4816947259976411  0.0002319651545595
  0.4844010465660895  0.2423400614666815  0.7574783996115748
  0.0140566881631514  0.5014339568070668  0.5173978509777574
  0.5017040442090095  0.7465393254818611  0.7365368746230820
  0.9847873125830945  0.2543016054435986  0.2613666445108328
  0.7576179998776299  0.7494118895398520  0.9992289937209486
  0.0164852414550543  0.2392724331278501  0.7416590149953323
  0.7560108623121182  0.2595912960201758  0.4951359296026473
  0.0023553556565310  0.7526856670051640  0.7511685350586266
  0.2547662467335155  0.5051717607804519  0.7578463094138252
  0.2460774272267261  0.2451363340363906  0.0042361829488767
  0.4982682345338554  0.2459514275721948  0.2479191245439374
  0.7403344527753867  0.9928550047589737  0.2558880165628810
  0.7499483751171389  0.2446254591673669  0.9892280144301256
  0.2714603585952702  0.7588079671156372  0.9997539169355134
  0.2575639569781483  0.2487555183219102  0.4982442656596905
  0.2510368772190749  0.7514084089955230  0.5011693420182943
  0.2484926790913343  0.2502376636557799  0.2511370219144499
  0.2530396427374060  0.0011244561756767  0.0039558648271541
  0.9991069640832687  0.2426312135384247  0.0026322629802998
  0.7396125086868165  0.2376482017907501  0.2442732492610648
  0.7497420684841766  0.9994967744353603  0.0014232753514258
  0.4955628603725419  0.9966274102354354  0.2359032599062897
  0.0112320100096406  0.4932805492566126  0.2449931315625032
  0.5065077765939592  0.7549068099363773  0.9934203025772919
  0.9896394626125746  0.9998388706486676  0.7634191133843684
  0.7488130830193501  0.2321062416382972  0.7444664181563574
  0.7427823475768264  0.0053065506833966  0.4989317343863315
  0.5034938517154356  0.2386946975140782  0.5020885339820750
  0.4885644793452185  0.0000154070627480  0.7567854756749361
  0.0044960470410161  0.0026052171347180  0.2494743603308906
  0.4986646318599437  0.2506009618025916  0.9986099969013559
  0.2559810433268377  0.7504675161273204  0.2505564632834759
  0.2498656453864229  0.5031071683851889  0.0050618682381382
  0.0130593003763583  0.7521478797758135  0.0007653391998980
  0.7349656802955445  0.7479266268522491  0.2453479724196437
  0.7586570565876348  0.4958828629064396  0.0014956934431647
  0.4963704566111237  0.5085703419387327  0.2440388254787728
  0.2553052110059351  0.2427354124443140  0.7512814496485393
  0.2603639498142635  0.9988488507963323  0.5055096766999209
  0.0086338844420132  0.2588983263232345  0.5019680405226592
  0.2573900297474493  0.7584795422795665  0.7502060394300403
  0.2492192514826300  0.5010030959251204  0.4960907526678044
  0.0037692492828507  0.7466376027624778  0.5020687734062856
  0.9990424493581322  0.4949113822641659  0.7530539741421879
  0.7457510829453273  0.7666521869108600  0.7453991208116860
  0.7603663765980109  0.4977037339324457  0.5005575337148015
  0.4988074765841800  0.7610586399171185  0.5006353402662530
  0.4989404580408877  0.4976725767805703  0.7561389589112623
  0.5085196461081481  0.0236436483684323  0.9848636521395876
  0.0025623836546725  0.5287516323418955  0.9783790677855926
  0.4923676247116187  0.7662697639590432  0.2755126333302481
  0.2263871277712601  0.9966933545473060  0.7352787963716427
  0.4808458285981234  0.9957151202308683  0.4701197334009056
  0.7072304404952489  0.9927229714893497  0.7789981981633364
  0.9957769312687850  0.7491489346651086  0.2492199427243424
  0.7385115885428341  0.4979519043093092  0.2439187585694734
  0.0109760442668597  0.0047209675417732  0.4974218973089283
  0.4989068376767716  0.5042734419235431  0.5011335232933738
  0.7403989022407851  0.5115717979169440  0.7591232955184823
  0.7515609424953759  0.7354008616597736  0.4961809292192412
 
  0.00000000E+00  0.00000000E+00  0.00000000E+00
  0.00000000E+00  0.00000000E+00  0.00000000E+00
  0.00000000E+00  0.00000000E+00  0.00000000E+00
  0.00000000E+00  0.00000000E+00  0.00000000E+00
  0.00000000E+00  0.00000000E+00  0.00000000E+00
  0.00000000E+00  0.00000000E+00  0.00000000E+00
  0.00000000E+00  0.00000000E+00  0.00000000E+00
  0.00000000E+00  0.00000000E+00  0.00000000E+00
  0.00000000E+00  0.00000000E+00  0.00000000E+00
  0.00000000E+00  0.00000000E+00  0.00000000E+00
  0.00000000E+00  0.00000000E+00  0.00000000E+00
  0.00000000E+00  0.00000000E+00  0.00000000E+00
  0.00000000E+00  0.00000000E+00  0.00000000E+00
  0.00000000E+00  0.00000000E+00  0.00000000E+00
  0.00000000E+00  0.00000000E+00  0.00000000E+00
  0.00000000E+00  0.00000000E+00  0.00000000E+00
  0.00000000E+00  0.00000000E+00  0.00000000E+00
  0.00000000E+00  0.00000000E+00  0.00000000E+00
  0.00000000E+00  0.00000000E+00  0.00000000E+00
  0.00000000E+00  0.00000000E+00  0.00000000E+00
  0.00000000E+00  0.00000000E+00  0.00000000E+00
  0.00000000E+00  0.00000000E+00  0.00000000E+00
  0.00000000E+00  0.00000000E+00  0.00000000E+00
  0.00000000E+00  0.00000000E+00  0.00000000E+00
  0.00000000E+00  0.00000000E+00  0.00000000E+00
  0.00000000E+00  0.00000000E+00  0.00000000E+00
  0.00000000E+00  0.00000000E+00  0.00000000E+00
  0.00000000E+00  0.00000000E+00  0.00000000E+00
  0.00000000E+00  0.00000000E+00  0.00000000E+00
  0.00000000E+00  0.00000000E+00  0.00000000E+00
  0.00000000E+00  0.00000000E+00  0.00000000E+00
  0.00000000E+00  0.00000000E+00  0.00000000E+00
  0.00000000E+00  0.00000000E+00  0.00000000E+00
  0.00000000E+00  0.00000000E+00  0.00000000E+00
  0.00000000E+00  0.00000000E+00  0.00000000E+00
  0.00000000E+00  0.00000000E+00  0.00000000E+00
  0.00000000E+00  0.00000000E+00  0.00000000E+00
  0.00000000E+00  0.00000000E+00  0.00000000E+00
  0.00000000E+00  0.00000000E+00  0.00000000E+00
  0.00000000E+00  0.00000000E+00  0.00000000E+00
  0.00000000E+00  0.00000000E+00  0.00000000E+00
  0.00000000E+00  0.00000000E+00  0.00000000E+00
  0.00000000E+00  0.00000000E+00  0.00000000E+00
  0.00000000E+00  0.00000000E+00  0.00000000E+00
  0.00000000E+00  0.00000000E+00  0.00000000E+00
  0.00000000E+00  0.00000000E+00  0.00000000E+00
  0.00000000E+00  0.00000000E+00  0.00000000E+00
  0.00000000E+00  0.00000000E+00  0.00000000E+00
  0.00000000E+00  0.00000000E+00  0.00000000E+00
  0.00000000E+00  0.00000000E+00  0.00000000E+00
  0.00000000E+00  0.00000000E+00  0.00000000E+00
  0.00000000E+00  0.00000000E+00  0.00000000E+00
  0.00000000E+00  0.00000000E+00  0.00000000E+00
  0.00000000E+00  0.00000000E+00  0.00000000E+00
  0.00000000E+00  0.00000000E+00  0.00000000E+00
  0.00000000E+00  0.00000000E+00  0.00000000E+00
  0.00000000E+00  0.00000000E+00  0.00000000E+00
  0.00000000E+00  0.00000000E+00  0.00000000E+00
  0.00000000E+00  0.00000000E+00  0.00000000E+00
  0.00000000E+00  0.00000000E+00  0.00000000E+00
  0.00000000E+00  0.00000000E+00  0.00000000E+00
  0.00000000E+00  0.00000000E+00  0.00000000E+00
  0.00000000E+00  0.00000000E+00  0.00000000E+00
  0.00000000E+00  0.00000000E+00  0.00000000E+00
