80-ZrHfNbCrW                            
   1.00000000000000     
     8.9392406602977346    0.0178161761782502   -0.0168881601232960
     0.0239080419156124    8.9673223174761532   -0.0104549256039867
     0.0152124451219105   -0.0258507659838218    8.9479599335981312
   Hf   Nb   Zr   N    C    Cr   W 
     7     6     7    13    19     6     6
Direct
  0.9960347731539277  0.9938095241826952  0.9928818984972134
  0.2611258571659915  0.9967661514222110  0.2531974896318777
  0.2418064472054126  0.5005204512764492  0.2443343097095207
  0.5011993634366880  0.5020241681620311  0.9976760041413854
  0.5057458612206484  0.2459126808572982  0.7435472501709345
  0.9980902210119901  0.5028955891157881  0.4990979646590009
  0.5001882873730907  0.7558718836846969  0.7441440409185697
  0.9943340647966140  0.2327853987354717  0.2592287105040786
  0.7542337901571655  0.7470597733012410  0.0062391073704941
  0.0019723110203067  0.2483110306813069  0.7406160844125063
  0.7532890305736714  0.2604228424634193  0.5041629216679879
  0.9998009817386873  0.7455349560896214  0.7561644815819781
  0.2462513452730284  0.4955112433008746  0.7519410788323571
  0.2473626073802420  0.2421775542839853  0.9942935281005119
  0.5038647261400108  0.2513430634103139  0.2510008084848119
  0.7391335736395577  0.9918529809696629  0.2669648821300742
  0.7537167779588145  0.2496833054229561  0.9945807107945215
  0.2553774114864325  0.7566095426962366  0.9991623193168196
  0.2529940354013025  0.2495879074870800  0.5023710439560612
  0.2485025703506491  0.7507210561419848  0.5022249261549845
  0.2482817320006683  0.2484448252986443  0.2482333621316483
  0.2457085853241774  0.0002286476973933  0.0048098868503257
  0.0005304159299160  0.2437511016348673  0.0003816803159808
  0.7534535865606172  0.2514633719331591  0.2529529733149602
  0.7470782703101125  0.9947516747618992 -0.0040834077577993
  0.4978502843324538  0.9971921442577907  0.2793656512780401
  0.9923648053693832  0.4956363619251295  0.2494927664810799
  0.5081418297766251  0.7607509818843062 -0.0079109477275489
  0.9843910025263410  0.0023800082022168  0.7434063129433498
  0.7522845229999837  0.2600924951881222  0.7455426333781832
  0.7647159245524840  0.0049997936090854  0.5087548167799009
  0.5068756257960478  0.2519066430310306  0.5012055934580273
  0.5321036267139879 -0.0004251338441579  0.7366524264034409
  0.0003059777861055 -0.0025071435760430  0.2518673658569252
  0.5030726650153452  0.2385451223967618 -0.0055063441733847
  0.2530573699577945  0.7489714135091534  0.2500883773189189
  0.2423827474260205  0.5014749317317190  0.9953020166218673
  0.9995156052408231  0.7433325375852152  0.0066356028976742
  0.7453643625361165  0.7413977304552835  0.2511697135062299
  0.7623236075034601  0.5035593564132087  0.0058678173802195
  0.4947663948564473  0.5051393313162503  0.2481944001331817
  0.2500198309292671  0.2446133432490714  0.7483198808808805
  0.2515243903204899  0.0000604002655996  0.5127238330120837
 -0.0014571280275909  0.2494182662950797  0.5012078243157259
  0.2454200706975652  0.7577150077505536  0.7506536397794632
  0.2533656191568024  0.5011261859924945  0.4984523003455450
  0.9896801775413926  0.7570756823309825  0.5000178591590401
  0.9990448506499152  0.4992903579968631  0.7535484055176094
  0.7513209994601064  0.7517540996265212  0.7464091623912581
  0.7477024689615271  0.4995431696983728  0.5041460838369427
  0.5054579540659658  0.7627813269206306  0.4917628254356127
  0.5062069523864796  0.5016411875248552  0.7428644738442437
  0.5283995995545029  0.0065297239284025  0.9540429276571580
  0.9970856550067831  0.5220171500223654  0.9768109672790516
  0.5044376969544020  0.7295721125051311  0.2726386176709790
  0.2174609103641780  0.0100407776473308  0.7358530740668486
  0.4687591907799018  0.9910584504153465  0.5223431554231904
  0.7432267057361256  0.9631642101365119  0.7710632934824303
  0.0007346737162697  0.7710452323988468  0.2526084700113017
  0.7324586508643128  0.5076748508533497  0.2519291006934905
  0.0129476667508941  0.0039743491615490  0.5023913593961208
  0.5050760274208377  0.5121875490422487  0.4888406237711083
  0.7574473799953245  0.5168454287329587  0.7629421681069192
  0.7440870537153865  0.7303835894085784  0.4921778314961053
 
  0.00000000E+00  0.00000000E+00  0.00000000E+00
  0.00000000E+00  0.00000000E+00  0.00000000E+00
  0.00000000E+00  0.00000000E+00  0.00000000E+00
  0.00000000E+00  0.00000000E+00  0.00000000E+00
  0.00000000E+00  0.00000000E+00  0.00000000E+00
  0.00000000E+00  0.00000000E+00  0.00000000E+00
  0.00000000E+00  0.00000000E+00  0.00000000E+00
  0.00000000E+00  0.00000000E+00  0.00000000E+00
  0.00000000E+00  0.00000000E+00  0.00000000E+00
  0.00000000E+00  0.00000000E+00  0.00000000E+00
  0.00000000E+00  0.00000000E+00  0.00000000E+00
  0.00000000E+00  0.00000000E+00  0.00000000E+00
  0.00000000E+00  0.00000000E+00  0.00000000E+00
  0.00000000E+00  0.00000000E+00  0.00000000E+00
  0.00000000E+00  0.00000000E+00  0.00000000E+00
  0.00000000E+00  0.00000000E+00  0.00000000E+00
  0.00000000E+00  0.00000000E+00  0.00000000E+00
  0.00000000E+00  0.00000000E+00  0.00000000E+00
  0.00000000E+00  0.00000000E+00  0.00000000E+00
  0.00000000E+00  0.00000000E+00  0.00000000E+00
  0.00000000E+00  0.00000000E+00  0.00000000E+00
  0.00000000E+00  0.00000000E+00  0.00000000E+00
  0.00000000E+00  0.00000000E+00  0.00000000E+00
  0.00000000E+00  0.00000000E+00  0.00000000E+00
  0.00000000E+00  0.00000000E+00  0.00000000E+00
  0.00000000E+00  0.00000000E+00  0.00000000E+00
  0.00000000E+00  0.00000000E+00  0.00000000E+00
  0.00000000E+00  0.00000000E+00  0.00000000E+00
  0.00000000E+00  0.00000000E+00  0.00000000E+00
  0.00000000E+00  0.00000000E+00  0.00000000E+00
  0.00000000E+00  0.00000000E+00  0.00000000E+00
  0.00000000E+00  0.00000000E+00  0.00000000E+00
  0.00000000E+00  0.00000000E+00  0.00000000E+00
  0.00000000E+00  0.00000000E+00  0.00000000E+00
  0.00000000E+00  0.00000000E+00  0.00000000E+00
  0.00000000E+00  0.00000000E+00  0.00000000E+00
  0.00000000E+00  0.00000000E+00  0.00000000E+00
  0.00000000E+00  0.00000000E+00  0.00000000E+00
  0.00000000E+00  0.00000000E+00  0.00000000E+00
  0.00000000E+00  0.00000000E+00  0.00000000E+00
  0.00000000E+00  0.00000000E+00  0.00000000E+00
  0.00000000E+00  0.00000000E+00  0.00000000E+00
  0.00000000E+00  0.00000000E+00  0.00000000E+00
  0.00000000E+00  0.00000000E+00  0.00000000E+00
  0.00000000E+00  0.00000000E+00  0.00000000E+00
  0.00000000E+00  0.00000000E+00  0.00000000E+00
  0.00000000E+00  0.00000000E+00  0.00000000E+00
  0.00000000E+00  0.00000000E+00  0.00000000E+00
  0.00000000E+00  0.00000000E+00  0.00000000E+00
  0.00000000E+00  0.00000000E+00  0.00000000E+00
  0.00000000E+00  0.00000000E+00  0.00000000E+00
  0.00000000E+00  0.00000000E+00  0.00000000E+00
  0.00000000E+00  0.00000000E+00  0.00000000E+00
  0.00000000E+00  0.00000000E+00  0.00000000E+00
  0.00000000E+00  0.00000000E+00  0.00000000E+00
  0.00000000E+00  0.00000000E+00  0.00000000E+00
  0.00000000E+00  0.00000000E+00  0.00000000E+00
  0.00000000E+00  0.00000000E+00  0.00000000E+00
  0.00000000E+00  0.00000000E+00  0.00000000E+00
  0.00000000E+00  0.00000000E+00  0.00000000E+00
  0.00000000E+00  0.00000000E+00  0.00000000E+00
  0.00000000E+00  0.00000000E+00  0.00000000E+00
  0.00000000E+00  0.00000000E+00  0.00000000E+00
  0.00000000E+00  0.00000000E+00  0.00000000E+00
