72-TiVNbCrW                             
   1.00000000000000     
     8.5630945262693867   -0.0004946318425353   -0.0101578128613978
     0.0053081252102071    8.5426945330891737   -0.0042597986557661
     0.0205842233592598   -0.0192724644346977    8.5951063215266981
   V    Nb   Ti   N    C    Cr   W 
     7     6     7    13    19     6     6
Direct
  0.0142901244028848  0.9867062329160776  0.0129000445490101
  0.2559825549305589  0.9864707808436207  0.2541593573888116
  0.2709081315141639  0.5101754274030390  0.2452130501854270
  0.4969624371633047  0.4808560168499548  0.9965730107309678
  0.4836158707839101  0.2375013958111024  0.7593287118783708
  0.0066841886521589  0.4945015369883046  0.5215197963796989
  0.5010208758803897  0.7502061972798659  0.7385601186589761
  0.9980508321218404  0.2566934586775445  0.2510038537133533
  0.7418417964086105  0.7530174123582817  0.0013210096111697
  0.0097936095657473  0.2417830765063850  0.7505861902309021
  0.7514582043829758  0.2523027814053861  0.5076668251427350
  0.0024697208030958  0.7569510019406086  0.7514346858998069
  0.2536763464953042  0.5015318550086486  0.7548945912789848
  0.2496035542039026  0.2442806145042222  0.0040395654956728
  0.4976950289346472  0.2448858625464069  0.2472627274170060
  0.7434295607444261  0.9969007389856003  0.2516999783780168
  0.7486360164699924  0.2451454812476867  0.9932963903108487
  0.2639980375071408  0.7559172822510909  0.0008168468498833
  0.2536616173791077  0.2501013059623727  0.4973252002100227
  0.2505389744476906  0.7503095676828048  0.5008123838335707
  0.2531645423219855  0.2509988124622299  0.2499779207070249
  0.2538107740983637  0.9999301163749660  0.0047828205410274
  0.0006946230733670  0.2437728032134529  0.0015913521565607
  0.7425406957086584  0.2434758158297442  0.2469049751536823
  0.7508689908775655  0.0031225811531459  0.0009541410441275
  0.4956722875665066  0.9964213866694881  0.2385285669919941
  0.0012241789696194  0.5033145300478483  0.2479141644708047
  0.4994621816425100  0.7550313863777300  0.9946243267164295
  0.9919334643581657  0.0006436779456205  0.7519469554586677
  0.7442129350737683  0.2413979676236030  0.7532754772256101
  0.7508559543648994  0.9989664234696894  0.4981202324048093
  0.4982078649935133  0.2424386035296549  0.5005830208734107
  0.4951748555387277  0.0023048199596328  0.7543146507139323
  0.0042911924045547  0.0004968539322781  0.2465067779479559
  0.4988903518420890  0.2479201957158670  0.9982327355321987
  0.2555806144532857  0.7488699035527544  0.2503723478702504
  0.2489321870393931  0.5003833060254527  0.0085152093308764
  0.0077849446588572  0.7499202074037308  0.0020288254555060
  0.7416688038144863  0.7509031104273979  0.2502978533305911
  0.7568434311846990  0.4953440451626928  0.0020349319509512
  0.4956227711423333  0.5083355573898626  0.2445386387021666
  0.2562444124573265  0.2418558656138374  0.7519837049842589
  0.2594345965972303  0.9996174775945927  0.5049474243598758
  0.0065563949089498  0.2549313384244951  0.5009821545781431
  0.2581171061255296  0.7594693631759761  0.7502498965867798
  0.2481221474896018  0.5003708029410167  0.4940258572017515
  0.0021140404439453  0.7472900218783494  0.4975107057934838
  0.9981723084826410  0.4999442304799417  0.7537712423087031
  0.7430526338733110  0.7607616827210868  0.7454034841912991
  0.7575846695471847  0.4987070921986423  0.4990075881566164
  0.4979229883757060  0.7602745944221581  0.5000705877932879
  0.5026163631300746  0.4970977272560305  0.7536237223633964
  0.5126385554961620  0.0201416706991879  0.9818061745287682
  0.0098971067020441  0.5224330444230572  0.9787747028723766
  0.4887040061429893  0.7664760147018966  0.2712764952675671
  0.2368626245865101  0.9980105632302294  0.7416172147574431
  0.4793829343361581  0.9941376945688415  0.4698470186451199
  0.7153138015848219  0.9857566504271019  0.7778677492897245
  0.0050920250922993  0.7523394520866552  0.2476908042935506
  0.7328117581025538  0.5001577879293635  0.2439002684232148
  0.0146520388815031  0.0060593616015835  0.4918215214522387
  0.4984930024273628  0.5054247257270025  0.5027876921700551
  0.7443488766499491  0.5092580282503154  0.7578928820246841
  0.7501108566469399  0.7392544292128117  0.4966809812358891
 
  0.00000000E+00  0.00000000E+00  0.00000000E+00
  0.00000000E+00  0.00000000E+00  0.00000000E+00
  0.00000000E+00  0.00000000E+00  0.00000000E+00
  0.00000000E+00  0.00000000E+00  0.00000000E+00
  0.00000000E+00  0.00000000E+00  0.00000000E+00
  0.00000000E+00  0.00000000E+00  0.00000000E+00
  0.00000000E+00  0.00000000E+00  0.00000000E+00
  0.00000000E+00  0.00000000E+00  0.00000000E+00
  0.00000000E+00  0.00000000E+00  0.00000000E+00
  0.00000000E+00  0.00000000E+00  0.00000000E+00
  0.00000000E+00  0.00000000E+00  0.00000000E+00
  0.00000000E+00  0.00000000E+00  0.00000000E+00
  0.00000000E+00  0.00000000E+00  0.00000000E+00
  0.00000000E+00  0.00000000E+00  0.00000000E+00
  0.00000000E+00  0.00000000E+00  0.00000000E+00
  0.00000000E+00  0.00000000E+00  0.00000000E+00
  0.00000000E+00  0.00000000E+00  0.00000000E+00
  0.00000000E+00  0.00000000E+00  0.00000000E+00
  0.00000000E+00  0.00000000E+00  0.00000000E+00
  0.00000000E+00  0.00000000E+00  0.00000000E+00
  0.00000000E+00  0.00000000E+00  0.00000000E+00
  0.00000000E+00  0.00000000E+00  0.00000000E+00
  0.00000000E+00  0.00000000E+00  0.00000000E+00
  0.00000000E+00  0.00000000E+00  0.00000000E+00
  0.00000000E+00  0.00000000E+00  0.00000000E+00
  0.00000000E+00  0.00000000E+00  0.00000000E+00
  0.00000000E+00  0.00000000E+00  0.00000000E+00
  0.00000000E+00  0.00000000E+00  0.00000000E+00
  0.00000000E+00  0.00000000E+00  0.00000000E+00
  0.00000000E+00  0.00000000E+00  0.00000000E+00
  0.00000000E+00  0.00000000E+00  0.00000000E+00
  0.00000000E+00  0.00000000E+00  0.00000000E+00
  0.00000000E+00  0.00000000E+00  0.00000000E+00
  0.00000000E+00  0.00000000E+00  0.00000000E+00
  0.00000000E+00  0.00000000E+00  0.00000000E+00
  0.00000000E+00  0.00000000E+00  0.00000000E+00
  0.00000000E+00  0.00000000E+00  0.00000000E+00
  0.00000000E+00  0.00000000E+00  0.00000000E+00
  0.00000000E+00  0.00000000E+00  0.00000000E+00
  0.00000000E+00  0.00000000E+00  0.00000000E+00
  0.00000000E+00  0.00000000E+00  0.00000000E+00
  0.00000000E+00  0.00000000E+00  0.00000000E+00
  0.00000000E+00  0.00000000E+00  0.00000000E+00
  0.00000000E+00  0.00000000E+00  0.00000000E+00
  0.00000000E+00  0.00000000E+00  0.00000000E+00
  0.00000000E+00  0.00000000E+00  0.00000000E+00
  0.00000000E+00  0.00000000E+00  0.00000000E+00
  0.00000000E+00  0.00000000E+00  0.00000000E+00
  0.00000000E+00  0.00000000E+00  0.00000000E+00
  0.00000000E+00  0.00000000E+00  0.00000000E+00
  0.00000000E+00  0.00000000E+00  0.00000000E+00
  0.00000000E+00  0.00000000E+00  0.00000000E+00
  0.00000000E+00  0.00000000E+00  0.00000000E+00
  0.00000000E+00  0.00000000E+00  0.00000000E+00
  0.00000000E+00  0.00000000E+00  0.00000000E+00
  0.00000000E+00  0.00000000E+00  0.00000000E+00
  0.00000000E+00  0.00000000E+00  0.00000000E+00
  0.00000000E+00  0.00000000E+00  0.00000000E+00
  0.00000000E+00  0.00000000E+00  0.00000000E+00
  0.00000000E+00  0.00000000E+00  0.00000000E+00
  0.00000000E+00  0.00000000E+00  0.00000000E+00
  0.00000000E+00  0.00000000E+00  0.00000000E+00
  0.00000000E+00  0.00000000E+00  0.00000000E+00
  0.00000000E+00  0.00000000E+00  0.00000000E+00
