89-HfVNbCrMo                            
   1.00000000000000     
     8.7107731454629604   -0.0177224481963787   -0.0035338510084881
    -0.0121249330692411    8.7412604534221980    0.0084263733633647
     0.0278483327527270   -0.0068555917336162    8.7617035731736621
   V    Nb   Hf   N    C    Cr   Mo
     7     6     7    13    19     6     6
Direct
  0.0041934595688735  0.9799805232657212  0.0243288293162883
  0.2337154296214415  0.9791119870244145  0.2501274955204316
  0.2686568379778593  0.5180646537761023  0.2444213865583034
  0.5000158886908658  0.4791470526102551  0.9902580573667710
  0.4796455727470957  0.2398576324081767  0.7559002988857828
  0.0025888610391738  0.4979863398439182  0.5279970744360766
  0.5064564795198561  0.7509779599799921  0.7336220093874450
 -0.0040935408919934  0.2717920392996396  0.2582751565342720
  0.7446945583783584  0.7492857898565904 -0.0008982318819649
  0.0107669726067502  0.2349813969197094  0.7439691961391853
  0.7508281864021329  0.2561178417646758  0.5143120019800590
  0.0001126540285977  0.7598330886549397  0.7482593349683020
  0.2545006881367526  0.5038043712558682  0.7541941482267515
  0.2413463168824089  0.2445230974571511  0.0033464201745067
  0.4953377398611693  0.2415785930887901  0.2485276834808054
  0.7400975705964211  0.9899560670958164  0.2591807570906039
  0.7555133654424863  0.2484625598093938  0.9897584765893463
  0.2701992020598008  0.7582488437565706 -0.0014756279287969
  0.2519133716100138  0.2520536147134523  0.4973410083698391
  0.2503521955534631  0.7504948934186919  0.4986087316672203
  0.2462446850839784  0.2518042679204451  0.2497038269380954
  0.2448701383034324  0.0003431494272388  0.0005034262763280
 -0.0012194930705884  0.2387407709400891  0.0032778615107551
  0.7469930443119135  0.2447205375310327  0.2509863413764524
  0.7546411935116786  0.9973639913074058 -0.0037913158400438
  0.4953970715801647  0.9971306071586622  0.2239826310077045
  0.0008485897826081  0.4996200932657950  0.2452273497072081
  0.5094693052114598  0.7545704963473499 -0.0176395393093749
  0.0049100366305295 -0.0000090228676691  0.7526225179234790
  0.7474278335812047  0.2418225740195960  0.7482103408481062
  0.7473285548011058  0.0043121394619529  0.5054609251070021
  0.5025393550707377  0.2434138679190820  0.5055405708850862
  0.5031015843019881  0.0010397843644136  0.7546135494526870
 -0.0001638021419355  0.0033667097910274  0.2482065202757762
  0.4990835617101874  0.2499774753831238 -0.0085704210232417
  0.2656713058116043  0.7519924786994799  0.2489842140016250
  0.2468393880070666  0.5029336498963798  0.0058495976477176
  0.0041073981127405  0.7501105603886441  0.0006002052238845
  0.7417882975492557  0.7415718212836072  0.2477496252799112
  0.7578965432809626  0.5023818389906655  0.0021178341985244
  0.4905808950024471  0.5074362228424889  0.2422801604208599
  0.2562746309822415  0.2431298719779236  0.7510982007903891
  0.2565831635298534  0.0002677532246931  0.4940873015121191
 -0.0011590886752549  0.2559324177308242  0.5010213883577946
  0.2592705358530822  0.7588474799501143  0.7485136330939337
  0.2458424922792632  0.5018906203958259  0.4930687360106066
  0.9957625063239381  0.7465909157823812  0.4985982766152885
  0.9993851386924520  0.5004457308175058  0.7538662040866185
  0.7445902132080641  0.7617183912896769  0.7425366136687380
  0.7594873465841868  0.4962843453572331  0.4969326608498017
  0.5059351327588244  0.7700006360087595  0.4970620883650819
  0.5044983601833558  0.4984922404768771  0.7515980040354076
  0.5167927415218162  0.0225671535659782  0.9875792679497968
  0.0016958170766195  0.5295256928719996  0.9719055382626622
  0.5058013710433459  0.7310526035346819  0.2809530061749336
  0.2556637741681107 -0.0008289953171110  0.7404371942616408
  0.4714801819566085 -0.0026426331240373  0.5382431420320599
  0.7207493594925665  0.9794062874873580  0.7749224796218267
  0.0031749105463537  0.7516782537345613  0.2505487007401739
  0.7232176083695357  0.5069377173476852  0.2440470951134299
  0.0120207432081507  0.0032169379011480  0.4857206802267219
  0.5018403962036516  0.5101807430924150  0.5006688868384173
  0.7460484426283163  0.5162793360507313  0.7542190094238026
  0.7498473018008294  0.7281238907720978  0.4964015991790038
 
  0.00000000E+00  0.00000000E+00  0.00000000E+00
  0.00000000E+00  0.00000000E+00  0.00000000E+00
  0.00000000E+00  0.00000000E+00  0.00000000E+00
  0.00000000E+00  0.00000000E+00  0.00000000E+00
  0.00000000E+00  0.00000000E+00  0.00000000E+00
  0.00000000E+00  0.00000000E+00  0.00000000E+00
  0.00000000E+00  0.00000000E+00  0.00000000E+00
  0.00000000E+00  0.00000000E+00  0.00000000E+00
  0.00000000E+00  0.00000000E+00  0.00000000E+00
  0.00000000E+00  0.00000000E+00  0.00000000E+00
  0.00000000E+00  0.00000000E+00  0.00000000E+00
  0.00000000E+00  0.00000000E+00  0.00000000E+00
  0.00000000E+00  0.00000000E+00  0.00000000E+00
  0.00000000E+00  0.00000000E+00  0.00000000E+00
  0.00000000E+00  0.00000000E+00  0.00000000E+00
  0.00000000E+00  0.00000000E+00  0.00000000E+00
  0.00000000E+00  0.00000000E+00  0.00000000E+00
  0.00000000E+00  0.00000000E+00  0.00000000E+00
  0.00000000E+00  0.00000000E+00  0.00000000E+00
  0.00000000E+00  0.00000000E+00  0.00000000E+00
  0.00000000E+00  0.00000000E+00  0.00000000E+00
  0.00000000E+00  0.00000000E+00  0.00000000E+00
  0.00000000E+00  0.00000000E+00  0.00000000E+00
  0.00000000E+00  0.00000000E+00  0.00000000E+00
  0.00000000E+00  0.00000000E+00  0.00000000E+00
  0.00000000E+00  0.00000000E+00  0.00000000E+00
  0.00000000E+00  0.00000000E+00  0.00000000E+00
  0.00000000E+00  0.00000000E+00  0.00000000E+00
  0.00000000E+00  0.00000000E+00  0.00000000E+00
  0.00000000E+00  0.00000000E+00  0.00000000E+00
  0.00000000E+00  0.00000000E+00  0.00000000E+00
  0.00000000E+00  0.00000000E+00  0.00000000E+00
  0.00000000E+00  0.00000000E+00  0.00000000E+00
  0.00000000E+00  0.00000000E+00  0.00000000E+00
  0.00000000E+00  0.00000000E+00  0.00000000E+00
  0.00000000E+00  0.00000000E+00  0.00000000E+00
  0.00000000E+00  0.00000000E+00  0.00000000E+00
  0.00000000E+00  0.00000000E+00  0.00000000E+00
  0.00000000E+00  0.00000000E+00  0.00000000E+00
  0.00000000E+00  0.00000000E+00  0.00000000E+00
  0.00000000E+00  0.00000000E+00  0.00000000E+00
  0.00000000E+00  0.00000000E+00  0.00000000E+00
  0.00000000E+00  0.00000000E+00  0.00000000E+00
  0.00000000E+00  0.00000000E+00  0.00000000E+00
  0.00000000E+00  0.00000000E+00  0.00000000E+00
  0.00000000E+00  0.00000000E+00  0.00000000E+00
  0.00000000E+00  0.00000000E+00  0.00000000E+00
  0.00000000E+00  0.00000000E+00  0.00000000E+00
  0.00000000E+00  0.00000000E+00  0.00000000E+00
  0.00000000E+00  0.00000000E+00  0.00000000E+00
  0.00000000E+00  0.00000000E+00  0.00000000E+00
  0.00000000E+00  0.00000000E+00  0.00000000E+00
  0.00000000E+00  0.00000000E+00  0.00000000E+00
  0.00000000E+00  0.00000000E+00  0.00000000E+00
  0.00000000E+00  0.00000000E+00  0.00000000E+00
  0.00000000E+00  0.00000000E+00  0.00000000E+00
  0.00000000E+00  0.00000000E+00  0.00000000E+00
  0.00000000E+00  0.00000000E+00  0.00000000E+00
  0.00000000E+00  0.00000000E+00  0.00000000E+00
  0.00000000E+00  0.00000000E+00  0.00000000E+00
  0.00000000E+00  0.00000000E+00  0.00000000E+00
  0.00000000E+00  0.00000000E+00  0.00000000E+00
  0.00000000E+00  0.00000000E+00  0.00000000E+00
  0.00000000E+00  0.00000000E+00  0.00000000E+00
