100-TiZrVNbCr                           
   1.00000000000000     
     8.7207370297485554    0.0168012307032562   -0.0036581444010956
     0.0228367286035051    8.7708628557576542   -0.0042481238662211
     0.0276631412419935   -0.0194352076801111    8.7153682277160325
   Zr   Nb   Ti   N    C    Cr   V 
     7     6     7    13    19     6     6
Direct
  0.0008222071437688  0.9958686245985413  0.9970778514482515
  0.2688298227306637  0.9999581959686323  0.2500125895060601
  0.2421926619747139  0.4965092429141276  0.2478103406289422
  0.5031531417818906  0.4997312676337647  0.0021305944845172
  0.5077075842775342  0.2459336817850485  0.7415074529908869
  0.9936908848208714  0.5041136258881681  0.4995411580667455
  0.4955738286222005  0.7596263206484145  0.7521272198783128
  0.9911823907802549  0.2350512704118671  0.2558561724871639
  0.7560668232515390  0.7413685936111175  0.0123328860282765
 -0.0007977913244183  0.2496585946020825  0.7456518492151085
  0.7523816369933295  0.2321684971559217  0.4974820339217255
  0.9978752317153946  0.7511559136899123  0.7472303652862825
  0.2509126364435095  0.4961323839656222  0.7478180591199107
  0.2557077463044899  0.2430019458665169  0.9920393291454663
  0.5105669239029149  0.2582806607989698  0.2554758446077999
  0.7375066578869209  0.9879184500652335  0.2532817382539419
  0.7514245040789295  0.2562376605207847  0.0002037416869226
  0.2472747594620466  0.7484864633646390  0.0011765117516155
  0.2538874092644018  0.2461048791843494  0.5029574755764564
  0.2501359873929335  0.7536497852762095  0.5001352127837715
  0.2523322472005602  0.2474398361462848  0.2471234650836999
  0.2611255155559733  0.0009850730671530  0.9913653401404117
  0.0029652344593550  0.2536368995867224  0.0010551425096714
  0.7465007968350740  0.2460961036504428  0.2471438951508665
  0.7435398471089004  0.0012739382738251  0.0039869264050294
  0.5133935345775017  0.0012849517706354  0.2546604751897443
  0.9852537745417483  0.4953176835103687  0.2428767674216528
  0.4988898128782472  0.7632622166285318  0.0102811945089436
  0.9852831251415661  0.0021228385481277  0.7371746479388569
  0.7558018847367279  0.2508931330251269  0.7536859956944366
  0.7478564659292789 -0.0018888062502650  0.4997354231162847
  0.4986970389139766  0.2412734072011094  0.4896769469871554
  0.5280460290670909  0.0011181051625501  0.7456937129252664
  0.9971306978708443  0.9938538874086121  0.2576963467456138
  0.5040483798474915  0.2393823245788899  0.0040711863299129
  0.2506844927174268  0.7493342089718781  0.2499318133805351
  0.2394060889662895  0.4992395686661454  0.9943418039246047
  0.0037423244210375  0.7382795972259978  0.0074404357971383
  0.7483193987530320  0.7448048793233614  0.2589659741313261
  0.7627013342871819  0.4974114197663872  0.0035532240361839
  0.5056034763921535  0.5008013954748791  0.2604240485481866
  0.2485316654117640  0.2441782325146863  0.7481577022157406
  0.2542396685010133  0.9998101548934820  0.5126841598219209
  0.0042114848230730  0.2426704679897747  0.4999153909314973
  0.2410856400953329  0.7586751267321813  0.7506188175448033
  0.2577556658692271  0.5018922033512088  0.5009286197335063
  0.9962234510857930  0.7623146310046208  0.4947343242352041
  0.9905504385531747  0.5014885859781839  0.7569001634326552
  0.7502101783024939  0.7503024986260245  0.7493657356966068
  0.7376209207533423  0.5057224527635600  0.5006535840769224
  0.4988474405035844  0.7587578331323233  0.4876927949170453
  0.5048918176847502  0.5040139873736956  0.7391484302582220
  0.5198621195522166  0.0129608108493350  0.9745522911651718
 -0.0014904172517576  0.5090891556639637  0.9816691929413400
  0.4942900593692065  0.7311415329017731  0.2540996312860648
  0.2210939990615954  0.0112412859816154  0.7359515136455934
  0.4862450096864302  0.9871960219136643  0.5168567201551497
  0.7442429734683335  0.9687218263379963  0.7808658373336753
  0.0076039793347056  0.7690804035837585  0.2584664500199978
  0.7399499179784848  0.5121500381591075  0.2680949450145000
  0.0165550070817357  0.0003901957567478  0.5009753201279518
  0.5010411900439221  0.5255310446524393  0.4964010340257107
  0.7428419162407434  0.5199852093719708  0.7384683651025737
  0.7461797021454707  0.7558073317812009  0.4900659194844859
 
  0.00000000E+00  0.00000000E+00  0.00000000E+00
  0.00000000E+00  0.00000000E+00  0.00000000E+00
  0.00000000E+00  0.00000000E+00  0.00000000E+00
  0.00000000E+00  0.00000000E+00  0.00000000E+00
  0.00000000E+00  0.00000000E+00  0.00000000E+00
  0.00000000E+00  0.00000000E+00  0.00000000E+00
  0.00000000E+00  0.00000000E+00  0.00000000E+00
  0.00000000E+00  0.00000000E+00  0.00000000E+00
  0.00000000E+00  0.00000000E+00  0.00000000E+00
  0.00000000E+00  0.00000000E+00  0.00000000E+00
  0.00000000E+00  0.00000000E+00  0.00000000E+00
  0.00000000E+00  0.00000000E+00  0.00000000E+00
  0.00000000E+00  0.00000000E+00  0.00000000E+00
  0.00000000E+00  0.00000000E+00  0.00000000E+00
  0.00000000E+00  0.00000000E+00  0.00000000E+00
  0.00000000E+00  0.00000000E+00  0.00000000E+00
  0.00000000E+00  0.00000000E+00  0.00000000E+00
  0.00000000E+00  0.00000000E+00  0.00000000E+00
  0.00000000E+00  0.00000000E+00  0.00000000E+00
  0.00000000E+00  0.00000000E+00  0.00000000E+00
  0.00000000E+00  0.00000000E+00  0.00000000E+00
  0.00000000E+00  0.00000000E+00  0.00000000E+00
  0.00000000E+00  0.00000000E+00  0.00000000E+00
  0.00000000E+00  0.00000000E+00  0.00000000E+00
  0.00000000E+00  0.00000000E+00  0.00000000E+00
  0.00000000E+00  0.00000000E+00  0.00000000E+00
  0.00000000E+00  0.00000000E+00  0.00000000E+00
  0.00000000E+00  0.00000000E+00  0.00000000E+00
  0.00000000E+00  0.00000000E+00  0.00000000E+00
  0.00000000E+00  0.00000000E+00  0.00000000E+00
  0.00000000E+00  0.00000000E+00  0.00000000E+00
  0.00000000E+00  0.00000000E+00  0.00000000E+00
  0.00000000E+00  0.00000000E+00  0.00000000E+00
  0.00000000E+00  0.00000000E+00  0.00000000E+00
  0.00000000E+00  0.00000000E+00  0.00000000E+00
  0.00000000E+00  0.00000000E+00  0.00000000E+00
  0.00000000E+00  0.00000000E+00  0.00000000E+00
  0.00000000E+00  0.00000000E+00  0.00000000E+00
  0.00000000E+00  0.00000000E+00  0.00000000E+00
  0.00000000E+00  0.00000000E+00  0.00000000E+00
  0.00000000E+00  0.00000000E+00  0.00000000E+00
  0.00000000E+00  0.00000000E+00  0.00000000E+00
  0.00000000E+00  0.00000000E+00  0.00000000E+00
  0.00000000E+00  0.00000000E+00  0.00000000E+00
  0.00000000E+00  0.00000000E+00  0.00000000E+00
  0.00000000E+00  0.00000000E+00  0.00000000E+00
  0.00000000E+00  0.00000000E+00  0.00000000E+00
  0.00000000E+00  0.00000000E+00  0.00000000E+00
  0.00000000E+00  0.00000000E+00  0.00000000E+00
  0.00000000E+00  0.00000000E+00  0.00000000E+00
  0.00000000E+00  0.00000000E+00  0.00000000E+00
  0.00000000E+00  0.00000000E+00  0.00000000E+00
  0.00000000E+00  0.00000000E+00  0.00000000E+00
  0.00000000E+00  0.00000000E+00  0.00000000E+00
  0.00000000E+00  0.00000000E+00  0.00000000E+00
  0.00000000E+00  0.00000000E+00  0.00000000E+00
  0.00000000E+00  0.00000000E+00  0.00000000E+00
  0.00000000E+00  0.00000000E+00  0.00000000E+00
  0.00000000E+00  0.00000000E+00  0.00000000E+00
  0.00000000E+00  0.00000000E+00  0.00000000E+00
  0.00000000E+00  0.00000000E+00  0.00000000E+00
  0.00000000E+00  0.00000000E+00  0.00000000E+00
  0.00000000E+00  0.00000000E+00  0.00000000E+00
  0.00000000E+00  0.00000000E+00  0.00000000E+00
