97-TiZrHfVCr                            
   1.00000000000000     
     8.7716203249274471    0.0160454306521865   -0.0140077646813525
     0.0221237199157890    8.8032506223893012    0.0029054474047039
     0.0175030216505551   -0.0123679137068144    8.7871934345284402
   Zr   Hf   Ti   N    C    Cr   V 
     7     6     7    13    19     6     6
Direct
  0.0015768922218484  0.9913085563906934  0.0026439815025996
  0.2694401357349371  0.9994793500949737  0.2490608678008183
  0.2477052352427249  0.4977434491633724  0.2484738216748544
  0.5061066069644548  0.4985876108749603  0.0019285821256813
  0.5037780107985539  0.2469791339620079  0.7442495220025068
  0.9950623919928163  0.5041386618919423  0.5001648404671517
  0.4973654722970711  0.7585584436978567  0.7490366298135512
  0.9942262484813665  0.2484854586064149  0.2458228150320390
  0.7468848245457951  0.7492461452906714  0.0111456502779417
  0.9954845882322038  0.2446551325397910  0.7529558148468044
  0.7461263963618546  0.2350922416538601  0.5004361350994359
  0.9982423754167187  0.7588693515619631  0.7444659910847452
  0.2505033347301631  0.5007824067914609  0.7488973219534866
  0.2584126619112190  0.2426830189463410  0.9923216455914307
  0.5073503455333725  0.2574386692237325  0.2535069024805610
  0.7357442026686348  0.9835867675603385  0.2606995450536349
  0.7453518157899237  0.2469162540017235  0.9993685105909410
  0.2524609281572173  0.7483163696862714  0.0005243768298916
  0.2546387276304479  0.2468912539051166  0.5029996341254738
  0.2531464968403365  0.7527832565941210  0.4987984161830132
  0.2537515081045263  0.2479493477104032  0.2461563287388844
  0.2607939835898769  0.0009255744058859  0.9927823908491659
  0.9981078282512915  0.2487878564282033  0.9987861819206170
  0.7455062824278899  0.2458336893234944  0.2487037661308193
  0.7423585808069993  0.0021178843184601  0.0027475574431398
  0.5125393849428973  0.0031801306807058  0.2541698705292798
  0.9882467389916437  0.5032313074038786  0.2447017931483924
  0.4960363527158751  0.7633790488491365  0.0083507378314873
  0.9992737385929458  0.0017525032426180  0.7384594299114695
  0.7520103047221463  0.2420787990577755  0.7534273078160322
  0.7428282677569599  0.9915956078088058  0.4991625876057778
  0.4982355874636790  0.2421650174234508  0.4908479864363684
  0.5160021797416856  0.0018110329633297  0.7444190232690165
  0.9986700388530472  0.9927955574303982  0.2580628147998324
  0.5037062405236924  0.2387459041855177  0.0045125209342482
  0.2508313980221676  0.7491602297624048  0.2494696616665086
  0.2405509389762330  0.4992358444285476  0.9976081497205447
  0.0037676852104654  0.7385357915687480  0.0057429345665571
  0.7454302939195375  0.7461991862980171  0.2624657694389593
  0.7635705964648354  0.4954214845841233  0.0038677003373424
  0.5079895070696193  0.5005109564365899  0.2607458392632788
  0.2490235773421448  0.2408027584083673  0.7481085689749425
  0.2543872205711723  0.0000500430213116  0.5081898669087325
  0.0029127378826941  0.2406238449736578  0.4983207502527235
  0.2463092309184848  0.7606997262214805  0.7509357185137855
  0.2596120832274338  0.5001328948684175  0.4996384542433125
  0.9973342333003767  0.7637503191049682  0.4898575530532279
  0.9894245599681679  0.5024727647461983  0.7602530861070471
  0.7485446477556386  0.7533764839000933  0.7479633655914085
  0.7385759762037689  0.5086952577814210  0.5020490307643786
  0.4988066306866576  0.7587514488091238  0.4874623728822686
  0.5087403038233776  0.5038279185968859  0.7400531500001443
  0.5164048394463449  0.0114832600345259  0.9729661945438624
  0.9913878018488521  0.5122020670054865  0.9828246390226917
  0.4907076206514114  0.7307061227154236  0.2595240167053189
  0.2382166205500604  0.0022136304095069  0.7334996768555533
  0.4817725070904091  0.9878595894876755  0.5206445297073712
  0.7372331656804479  0.9793369421520139  0.7733489636851911
  0.0162857015658224  0.7570428621103158  0.2571305167683146
  0.7407487066229324  0.5175898318224893  0.2698309650831326
  0.0233031258592789  0.9979340866809332  0.4956592726846140
  0.5021729269506239  0.5221209395413249  0.4975798011490081
  0.7465471102656326  0.5250608481192579  0.7404610546313128
  0.7417339190885877  0.7553118237410184  0.4910072309774408
 
  0.00000000E+00  0.00000000E+00  0.00000000E+00
  0.00000000E+00  0.00000000E+00  0.00000000E+00
  0.00000000E+00  0.00000000E+00  0.00000000E+00
  0.00000000E+00  0.00000000E+00  0.00000000E+00
  0.00000000E+00  0.00000000E+00  0.00000000E+00
  0.00000000E+00  0.00000000E+00  0.00000000E+00
  0.00000000E+00  0.00000000E+00  0.00000000E+00
  0.00000000E+00  0.00000000E+00  0.00000000E+00
  0.00000000E+00  0.00000000E+00  0.00000000E+00
  0.00000000E+00  0.00000000E+00  0.00000000E+00
  0.00000000E+00  0.00000000E+00  0.00000000E+00
  0.00000000E+00  0.00000000E+00  0.00000000E+00
  0.00000000E+00  0.00000000E+00  0.00000000E+00
  0.00000000E+00  0.00000000E+00  0.00000000E+00
  0.00000000E+00  0.00000000E+00  0.00000000E+00
  0.00000000E+00  0.00000000E+00  0.00000000E+00
  0.00000000E+00  0.00000000E+00  0.00000000E+00
  0.00000000E+00  0.00000000E+00  0.00000000E+00
  0.00000000E+00  0.00000000E+00  0.00000000E+00
  0.00000000E+00  0.00000000E+00  0.00000000E+00
  0.00000000E+00  0.00000000E+00  0.00000000E+00
  0.00000000E+00  0.00000000E+00  0.00000000E+00
  0.00000000E+00  0.00000000E+00  0.00000000E+00
  0.00000000E+00  0.00000000E+00  0.00000000E+00
  0.00000000E+00  0.00000000E+00  0.00000000E+00
  0.00000000E+00  0.00000000E+00  0.00000000E+00
  0.00000000E+00  0.00000000E+00  0.00000000E+00
  0.00000000E+00  0.00000000E+00  0.00000000E+00
  0.00000000E+00  0.00000000E+00  0.00000000E+00
  0.00000000E+00  0.00000000E+00  0.00000000E+00
  0.00000000E+00  0.00000000E+00  0.00000000E+00
  0.00000000E+00  0.00000000E+00  0.00000000E+00
  0.00000000E+00  0.00000000E+00  0.00000000E+00
  0.00000000E+00  0.00000000E+00  0.00000000E+00
  0.00000000E+00  0.00000000E+00  0.00000000E+00
  0.00000000E+00  0.00000000E+00  0.00000000E+00
  0.00000000E+00  0.00000000E+00  0.00000000E+00
  0.00000000E+00  0.00000000E+00  0.00000000E+00
  0.00000000E+00  0.00000000E+00  0.00000000E+00
  0.00000000E+00  0.00000000E+00  0.00000000E+00
  0.00000000E+00  0.00000000E+00  0.00000000E+00
  0.00000000E+00  0.00000000E+00  0.00000000E+00
  0.00000000E+00  0.00000000E+00  0.00000000E+00
  0.00000000E+00  0.00000000E+00  0.00000000E+00
  0.00000000E+00  0.00000000E+00  0.00000000E+00
  0.00000000E+00  0.00000000E+00  0.00000000E+00
  0.00000000E+00  0.00000000E+00  0.00000000E+00
  0.00000000E+00  0.00000000E+00  0.00000000E+00
  0.00000000E+00  0.00000000E+00  0.00000000E+00
  0.00000000E+00  0.00000000E+00  0.00000000E+00
  0.00000000E+00  0.00000000E+00  0.00000000E+00
  0.00000000E+00  0.00000000E+00  0.00000000E+00
  0.00000000E+00  0.00000000E+00  0.00000000E+00
  0.00000000E+00  0.00000000E+00  0.00000000E+00
  0.00000000E+00  0.00000000E+00  0.00000000E+00
  0.00000000E+00  0.00000000E+00  0.00000000E+00
  0.00000000E+00  0.00000000E+00  0.00000000E+00
  0.00000000E+00  0.00000000E+00  0.00000000E+00
  0.00000000E+00  0.00000000E+00  0.00000000E+00
  0.00000000E+00  0.00000000E+00  0.00000000E+00
  0.00000000E+00  0.00000000E+00  0.00000000E+00
  0.00000000E+00  0.00000000E+00  0.00000000E+00
  0.00000000E+00  0.00000000E+00  0.00000000E+00
  0.00000000E+00  0.00000000E+00  0.00000000E+00
