79-ZrHfNbCrMo                           
   1.00000000000000     
     8.9381156870565110    0.0159012418606690   -0.0152054130689510
     0.0219881192742892    8.9573406605931947   -0.0086244064137354
     0.0168967382697736   -0.0240345477353960    8.9545586942809674
   Hf   Nb   Zr   N    C    Cr   Mo
     7     6     7    13    19     6     6
Direct
  0.9953115391896656  0.9929988806436876  0.9946401630614685
  0.2612844637338287  0.9963194161978141  0.2535832680277517
  0.2390993232035645  0.5015953536834329  0.2436302696407366
  0.5029338911698024  0.5031365632559186  0.9969266028013383
  0.5068010245196324  0.2464061106472654  0.7436064573273173
  0.9965192800307695  0.5031682174107444  0.4981989122535705
  0.5010401015293463  0.7555752788864153  0.7427079845425887
  0.9940996827615466  0.2341938765271394  0.2597837184667885
  0.7546273282882585  0.7453769385697659  0.0078711889831663
  0.0011638337420014  0.2494796344826322  0.7411590700283268
  0.7528920702693855  0.2562346618141539  0.5061034347737666
  0.9990486045672754  0.7459598197472498  0.7522921129289335
  0.2492173218620560  0.4957938154647211  0.7498626564904339
  0.2475327883581431  0.2424866342932166  0.9941810371429424
  0.5045189377664939  0.2528929602200956  0.2520835254694091
  0.7395320138591912  0.9903107976149317  0.2695979315422469
  0.7545635648663175  0.2518082280371586  0.9951127041842719
  0.2550473137196180  0.7567499009577990  0.9987716556501646
  0.2531545229050758  0.2503459192513048  0.5015979272399936
  0.2483226532763868  0.7507313040209022  0.5006402048139296
  0.2484658582684719  0.2490224212199610  0.2479305520056483
  0.2446140836023055  0.0002089124817949  0.0055594765268698
  0.0006616405368858  0.2442802954687045  0.0000014306382414
  0.7533856478692301  0.2477633294456240  0.2546159089055492
  0.7470186773666851  0.9947904707301597 -0.0034918548085006
  0.4984032039812429 -0.0013760616701675  0.2727892398378338
  0.9949127838370952  0.4903689734876729  0.2510378104539024
  0.5081803998173168  0.7610362961298045 -0.0102772660393943
  0.9850796333865699  0.0032677885777608  0.7462359063004612
  0.7526298591604239  0.2550489097820771  0.7465746206059523
  0.7589580425117950  0.0100914720277262  0.5089055532589595
  0.5072088264986706  0.2489427460225298  0.5014220053523200
  0.5321843257012430 -0.0006700668872944  0.7382223610630875
  0.0000572595752659 -0.0003202855888265  0.2519487089474840
  0.5036019417391658  0.2383221480033165 -0.0050925640392023
  0.2577014028843080  0.7495945639472964  0.2493397529999918
  0.2428874458625835  0.5016732501820018  0.9940395323963528
  0.9983451901651292  0.7416971419099690  0.0040667015236614
  0.7434408672890692  0.7399636091610000  0.2506794228822495
  0.7633320712834254  0.5040563711678714  0.0080407262674322
  0.4928240981458217  0.5073040249858931  0.2472986016949004
  0.2498342981007395  0.2442184129041095  0.7477264763816838
  0.2556117262497539  0.0004125363179737  0.5142746560334155
 -0.0016550915618435  0.2504093523748084  0.5013903512900519
  0.2451246002213100  0.7588377622763179  0.7493350889477340
  0.2512679052511391  0.5014353747182991  0.4981676158707047
  0.9902897603608770  0.7566616186015210  0.5009694329259335
  0.0008730466303307  0.5006381499358158  0.7532984357276121
  0.7516707227592827  0.7546275138140803  0.7470329756953776
  0.7473896533299061  0.4978509227997505  0.5058007479559357
  0.5057420916185782  0.7638133753169698  0.4895056788323863
  0.5040638959164565  0.5019864712812625  0.7440911305873388
  0.5295059120335683  0.0048611941130358  0.9563627121698685
  0.9919992197841461  0.5202644992001897  0.9753439823733212
  0.5055029167901347  0.7283779341685405  0.2736726005379154
  0.2151745209829078  0.0103172454923306  0.7313038503018069
  0.4735253315348156  0.9920128788349570  0.5216559295955991
  0.7435547882887887  0.9649565501574395  0.7722653772581599
 -0.0017243656649126  0.7719127882358935  0.2563940336763091
  0.7292212003653413  0.5079565013972324  0.2563878399326237
  0.0139225622997292  0.0031966611909873  0.5015096641675307
  0.5070604765638503  0.5125893248403522  0.4875146453570894
  0.7574600216285327  0.5183301703348873  0.7623085830214337
  0.7439816634154850  0.7277018903820269  0.4914908752172382
 
  0.00000000E+00  0.00000000E+00  0.00000000E+00
  0.00000000E+00  0.00000000E+00  0.00000000E+00
  0.00000000E+00  0.00000000E+00  0.00000000E+00
  0.00000000E+00  0.00000000E+00  0.00000000E+00
  0.00000000E+00  0.00000000E+00  0.00000000E+00
  0.00000000E+00  0.00000000E+00  0.00000000E+00
  0.00000000E+00  0.00000000E+00  0.00000000E+00
  0.00000000E+00  0.00000000E+00  0.00000000E+00
  0.00000000E+00  0.00000000E+00  0.00000000E+00
  0.00000000E+00  0.00000000E+00  0.00000000E+00
  0.00000000E+00  0.00000000E+00  0.00000000E+00
  0.00000000E+00  0.00000000E+00  0.00000000E+00
  0.00000000E+00  0.00000000E+00  0.00000000E+00
  0.00000000E+00  0.00000000E+00  0.00000000E+00
  0.00000000E+00  0.00000000E+00  0.00000000E+00
  0.00000000E+00  0.00000000E+00  0.00000000E+00
  0.00000000E+00  0.00000000E+00  0.00000000E+00
  0.00000000E+00  0.00000000E+00  0.00000000E+00
  0.00000000E+00  0.00000000E+00  0.00000000E+00
  0.00000000E+00  0.00000000E+00  0.00000000E+00
  0.00000000E+00  0.00000000E+00  0.00000000E+00
  0.00000000E+00  0.00000000E+00  0.00000000E+00
  0.00000000E+00  0.00000000E+00  0.00000000E+00
  0.00000000E+00  0.00000000E+00  0.00000000E+00
  0.00000000E+00  0.00000000E+00  0.00000000E+00
  0.00000000E+00  0.00000000E+00  0.00000000E+00
  0.00000000E+00  0.00000000E+00  0.00000000E+00
  0.00000000E+00  0.00000000E+00  0.00000000E+00
  0.00000000E+00  0.00000000E+00  0.00000000E+00
  0.00000000E+00  0.00000000E+00  0.00000000E+00
  0.00000000E+00  0.00000000E+00  0.00000000E+00
  0.00000000E+00  0.00000000E+00  0.00000000E+00
  0.00000000E+00  0.00000000E+00  0.00000000E+00
  0.00000000E+00  0.00000000E+00  0.00000000E+00
  0.00000000E+00  0.00000000E+00  0.00000000E+00
  0.00000000E+00  0.00000000E+00  0.00000000E+00
  0.00000000E+00  0.00000000E+00  0.00000000E+00
  0.00000000E+00  0.00000000E+00  0.00000000E+00
  0.00000000E+00  0.00000000E+00  0.00000000E+00
  0.00000000E+00  0.00000000E+00  0.00000000E+00
  0.00000000E+00  0.00000000E+00  0.00000000E+00
  0.00000000E+00  0.00000000E+00  0.00000000E+00
  0.00000000E+00  0.00000000E+00  0.00000000E+00
  0.00000000E+00  0.00000000E+00  0.00000000E+00
  0.00000000E+00  0.00000000E+00  0.00000000E+00
  0.00000000E+00  0.00000000E+00  0.00000000E+00
  0.00000000E+00  0.00000000E+00  0.00000000E+00
  0.00000000E+00  0.00000000E+00  0.00000000E+00
  0.00000000E+00  0.00000000E+00  0.00000000E+00
  0.00000000E+00  0.00000000E+00  0.00000000E+00
  0.00000000E+00  0.00000000E+00  0.00000000E+00
  0.00000000E+00  0.00000000E+00  0.00000000E+00
  0.00000000E+00  0.00000000E+00  0.00000000E+00
  0.00000000E+00  0.00000000E+00  0.00000000E+00
  0.00000000E+00  0.00000000E+00  0.00000000E+00
  0.00000000E+00  0.00000000E+00  0.00000000E+00
  0.00000000E+00  0.00000000E+00  0.00000000E+00
  0.00000000E+00  0.00000000E+00  0.00000000E+00
  0.00000000E+00  0.00000000E+00  0.00000000E+00
  0.00000000E+00  0.00000000E+00  0.00000000E+00
  0.00000000E+00  0.00000000E+00  0.00000000E+00
  0.00000000E+00  0.00000000E+00  0.00000000E+00
  0.00000000E+00  0.00000000E+00  0.00000000E+00
  0.00000000E+00  0.00000000E+00  0.00000000E+00
