28-TiHfNbTaW                            
   1.00000000000000     
     8.8758977467787599    0.0058627883819852    0.0195709472667449
     0.0059297974567773    8.9404126654767921   -0.0139141405165935
     0.0195856623517544   -0.0138102965086029    8.9032667967771886
   Ti   Ta   Hf   N    C    W    Nb
     7     6     7    13    19     6     6
Direct
  0.0038053302989024 -0.0158791658882262  0.0051234488512406
  0.2476312603018071 -0.0074405874657330  0.2550702414530220
  0.2555188383256774  0.5079685801301678  0.2475351410943714
  0.4985869797710055  0.4863773492482051 -0.0042200377116473
  0.4914696328815201  0.2455717060373065  0.7555762025782223
  0.0002544421033793  0.4990722170465425  0.5094510696537708
  0.5018311498365947  0.7503382259021512  0.7424464124106187
  0.0001819119700785  0.2443035002942016  0.2605827589398464
  0.7495150536868900  0.7483005980390148  0.0029131510577469
  0.0067039348012920  0.2493448208099364  0.7400297886771041
  0.7550848644157566  0.2616337121772015  0.5051958153318984
 -0.0015171177586535  0.7480021589052331  0.7521173398655945
  0.2536700872495029  0.4971363186719974  0.7525718678232401
  0.2451775425280410  0.2465874390922330  0.0002891481085037
  0.4985769134715328  0.2531835827396611  0.2472239605838517
  0.7500292803466486 -0.0054188921608800  0.2534582763126659
  0.7542405269511701  0.2517953957359942 -0.0066733885955193
  0.2597505600229320  0.7545672152286278 -0.0006435567022827
  0.2511622591323502  0.2505383967529453  0.4987946744931588
  0.2460597131149377  0.7479145887188478  0.5015887695991225
  0.2487831261880658  0.2493078468663878  0.2486220108529447
  0.2562035102417403  0.0012186310157078 -0.0002373471816735
  0.0004990117143375  0.2493257092175596  0.0000451799127198
  0.7510592885053530  0.2472521272380163  0.2512848502984191
  0.7571326097881533 -0.0001380287488762  0.0061112369236580
  0.4972914782449560 -0.0017305210212309  0.2392973573489411
  0.0018609235009265  0.4913519573447058  0.2453704885037546
  0.5062555589684538  0.7581326510242489  0.0007974962001725
 -0.0078580962616409  0.0025567083686827  0.7552505552212271
  0.7500743783506262  0.2444312383585459  0.7467591127771764
  0.7402241535146925  0.0054481279385455  0.5062001981929873
  0.5055221557802428  0.2426517556757385  0.5010838113079510
  0.4989919557993887  0.0023554890566278  0.7333908099286586
  0.0031823704760661  0.0009940306384434  0.2468863821549135
  0.5006835447219479  0.2546204509694689 -0.0043090545778736
  0.2540710567591982  0.7491932940055982  0.2497702062170656
  0.2489464643359282  0.5019883673140619  0.0038132463718174
  0.0022123143674209  0.7537008694489713 -0.0012137936470117
  0.7480142055311807  0.7481755786077390  0.2493761146091874
  0.7505834524050419  0.5033016969373476  0.0017185930739694
  0.4961297246024404  0.5037599601575947  0.2472671696989646
  0.2541371531701186  0.2513936570602741  0.7501093516353772
  0.2480046375624631 -0.0015636011293710  0.4958176019216802
 -0.0004092895144829  0.2540833509681930  0.5005461880383436
  0.2516108405209500  0.7531680090245761  0.7509392195728113
  0.2481461998067634  0.4991807554769946  0.4966301263211257
 -0.0036028196953526  0.7474276198345559  0.5032398119948246
  0.0004945300572216  0.4993907140120129  0.7507484769604598
  0.7457988658325450  0.7531307084544973  0.7524468198079511
  0.7548733927877137  0.4986595240276854  0.4998992469920470
  0.4995693976657211  0.7495889073766874  0.5062843931185521
  0.4993862620115987  0.5005339542442306  0.7515260711015340
  0.5101970278355236  0.0168473474805953 -0.0153456579074683
  0.0034861719787719  0.5185242138033553 -0.0080198714501202
  0.4998534270519828  0.7431847547919761  0.2647609574115842
  0.2465638104947650  0.0057828821598402  0.7431036355968956
  0.4802414873754634 -0.0159985403617804  0.4933785799846199
  0.7328660943494653 -0.0162824833108239  0.7696757077522445
  0.0016772138223378  0.7537330489950805  0.2492069913328298
  0.7423068777230384  0.5062345431755886  0.2507377297585769
  0.0090548106170315  0.0018393212043350  0.4973088291540744
  0.5004564272517272  0.5086080294369196  0.5028551968267703
  0.7457320005034519  0.5130383385019311  0.7517461315411582
  0.7519598018053527  0.7377005163433894  0.4966894265216855
 
  0.00000000E+00  0.00000000E+00  0.00000000E+00
  0.00000000E+00  0.00000000E+00  0.00000000E+00
  0.00000000E+00  0.00000000E+00  0.00000000E+00
  0.00000000E+00  0.00000000E+00  0.00000000E+00
  0.00000000E+00  0.00000000E+00  0.00000000E+00
  0.00000000E+00  0.00000000E+00  0.00000000E+00
  0.00000000E+00  0.00000000E+00  0.00000000E+00
  0.00000000E+00  0.00000000E+00  0.00000000E+00
  0.00000000E+00  0.00000000E+00  0.00000000E+00
  0.00000000E+00  0.00000000E+00  0.00000000E+00
  0.00000000E+00  0.00000000E+00  0.00000000E+00
  0.00000000E+00  0.00000000E+00  0.00000000E+00
  0.00000000E+00  0.00000000E+00  0.00000000E+00
  0.00000000E+00  0.00000000E+00  0.00000000E+00
  0.00000000E+00  0.00000000E+00  0.00000000E+00
  0.00000000E+00  0.00000000E+00  0.00000000E+00
  0.00000000E+00  0.00000000E+00  0.00000000E+00
  0.00000000E+00  0.00000000E+00  0.00000000E+00
  0.00000000E+00  0.00000000E+00  0.00000000E+00
  0.00000000E+00  0.00000000E+00  0.00000000E+00
  0.00000000E+00  0.00000000E+00  0.00000000E+00
  0.00000000E+00  0.00000000E+00  0.00000000E+00
  0.00000000E+00  0.00000000E+00  0.00000000E+00
  0.00000000E+00  0.00000000E+00  0.00000000E+00
  0.00000000E+00  0.00000000E+00  0.00000000E+00
  0.00000000E+00  0.00000000E+00  0.00000000E+00
  0.00000000E+00  0.00000000E+00  0.00000000E+00
  0.00000000E+00  0.00000000E+00  0.00000000E+00
  0.00000000E+00  0.00000000E+00  0.00000000E+00
  0.00000000E+00  0.00000000E+00  0.00000000E+00
  0.00000000E+00  0.00000000E+00  0.00000000E+00
  0.00000000E+00  0.00000000E+00  0.00000000E+00
  0.00000000E+00  0.00000000E+00  0.00000000E+00
  0.00000000E+00  0.00000000E+00  0.00000000E+00
  0.00000000E+00  0.00000000E+00  0.00000000E+00
  0.00000000E+00  0.00000000E+00  0.00000000E+00
  0.00000000E+00  0.00000000E+00  0.00000000E+00
  0.00000000E+00  0.00000000E+00  0.00000000E+00
  0.00000000E+00  0.00000000E+00  0.00000000E+00
  0.00000000E+00  0.00000000E+00  0.00000000E+00
  0.00000000E+00  0.00000000E+00  0.00000000E+00
  0.00000000E+00  0.00000000E+00  0.00000000E+00
  0.00000000E+00  0.00000000E+00  0.00000000E+00
  0.00000000E+00  0.00000000E+00  0.00000000E+00
  0.00000000E+00  0.00000000E+00  0.00000000E+00
  0.00000000E+00  0.00000000E+00  0.00000000E+00
  0.00000000E+00  0.00000000E+00  0.00000000E+00
  0.00000000E+00  0.00000000E+00  0.00000000E+00
  0.00000000E+00  0.00000000E+00  0.00000000E+00
  0.00000000E+00  0.00000000E+00  0.00000000E+00
  0.00000000E+00  0.00000000E+00  0.00000000E+00
  0.00000000E+00  0.00000000E+00  0.00000000E+00
  0.00000000E+00  0.00000000E+00  0.00000000E+00
  0.00000000E+00  0.00000000E+00  0.00000000E+00
  0.00000000E+00  0.00000000E+00  0.00000000E+00
  0.00000000E+00  0.00000000E+00  0.00000000E+00
  0.00000000E+00  0.00000000E+00  0.00000000E+00
  0.00000000E+00  0.00000000E+00  0.00000000E+00
  0.00000000E+00  0.00000000E+00  0.00000000E+00
  0.00000000E+00  0.00000000E+00  0.00000000E+00
  0.00000000E+00  0.00000000E+00  0.00000000E+00
  0.00000000E+00  0.00000000E+00  0.00000000E+00
  0.00000000E+00  0.00000000E+00  0.00000000E+00
  0.00000000E+00  0.00000000E+00  0.00000000E+00
