125-VTaCrMoW                            
   1.00000000000000     
     8.5924989899673481   -0.0290241275605259   -0.0014701290960425
    -0.0237329368121948    8.6467249555519921   -0.0094225886953200
     0.0292973850926300   -0.0244435767526031    8.6300267914824786
   Ta   W    V    N    C    Cr   Mo
     7     6     7    13    19     6     6
Direct
  0.0106058487299262  0.9992688863293854  0.9960600089824547
  0.2610021053117652  0.9972336996206970  0.2532015235592708
  0.2527954366043789  0.5015542435435906  0.2521574433442539
  0.5031044960004691  0.5007121991830566  0.9998839395954663
  0.4979777759096352  0.2418595996347407  0.7521145993624679
  0.9946441453401881  0.5021901826722931  0.5026019225657310
  0.4970034195552914  0.7604175262792284  0.7437447758414875
  0.9877032524824884  0.2308159665717164  0.2563883289388276
  0.7625885343188767  0.7446815027454552  0.0034807610045122
  0.0150182458146811  0.2442059503139026  0.7394478379721816
  0.7448152445309463  0.2320950126490085  0.4826404827050004
  0.0023661554135988  0.7378326564817805  0.7537612448248561
  0.2526684393233287  0.5015683187511882  0.7479285973774263
  0.2556644601205504  0.2722872165966493  0.9893268241532178
  0.5194129121043684  0.2395567303717645  0.2461247077766176
  0.7333751629607612  0.0083255408708824  0.2749298003277938
  0.7331279812595712  0.2341509921395374  0.9837509585399371
  0.2445476881295683  0.7341462709845507  0.0010773230315422
  0.2448098234644304  0.2397514693741433  0.5097685690877704
  0.2475431959856655  0.7575123690829350  0.5011209382884906
  0.2456521305554778  0.2482622212024949  0.2488894201810072
  0.2485520038785143  0.9997981254474682  0.0024824985205517
  0.9972222113235076  0.2448779699388324  0.0049199302468924
  0.7486876634326641  0.2461212972490618  0.2319707100965640
  0.7483472632934151  0.9956372468152138  0.0095244803131108
  0.5042087901915107  0.9941764221701637  0.2387112732851301
  0.0002490687037301  0.4889392978074037  0.2515492367502910
  0.4977349235518289  0.7528864036094112  0.9975607226913717
  0.9976482730926578  0.9920742723589805  0.7529494015817197
  0.7530989379403080  0.2307149604949851  0.7423094099258877
  0.7545438251893608  0.9927722084110272  0.5091857451620746
  0.4924075854132441  0.2505987022777239  0.4931948664882490
  0.4904869408069298  0.0014203622128286  0.7596112859079093
  0.9930889118714855  0.9982925296003634  0.2526536891504519
  0.4929165076686727  0.2460220046123515  0.0049375671708470
  0.2609687047939321  0.7491809033457084  0.2499565704268148
  0.2379825523418170  0.4999782013846250  0.9993371140681334
  0.0078244970232377  0.7444079302896029  0.0046582171344968
  0.7394692143343615  0.7607757720242121  0.2458799661755656
  0.7595941019383757  0.4864049416252874  0.0087090049178803
  0.4971846928104497  0.4989166384329584  0.2487588422519492
  0.2524569686883275  0.2423465073642102  0.7530372354499381
  0.2747563453885654  0.9998650980613836  0.5026645023917519
  0.9997525547549199  0.2514652308305008  0.4989621667652741
  0.2475891618452902  0.7586240373256350  0.7521981673381237
  0.2497146705468514  0.4984505915602958  0.5017008472077723
  0.0046205358276089  0.7525769885336263  0.5039772363462084
  0.9979275220917225  0.4881500671550282  0.7556068125207613
  0.7516166359174993  0.7683006281141547  0.7491856290176322
  0.7467423880174050  0.4855331791333860  0.5067967900290369
  0.4941064059043357  0.7699515629977436  0.4967491846425351
  0.4997860249530782  0.5018692689263052  0.7473332758504633
  0.5225076539147944  0.0208443221135327  0.9907024497139675
  0.9844076945860840  0.5238166080456474  0.9758337291652870
  0.4999077233474344  0.7414953259649674  0.2782507285660030
  0.2395236578027436  0.0050249303542196  0.7230099344900027
  0.5233233809678981  0.0204184319112317  0.4686627389915556
  0.7212575777666045 -0.0000615788917820  0.7841947572610249
  0.0050225388238798  0.7649461983136852  0.2527597908846465
  0.7337610941884991  0.5187381153358035  0.2544229078925299
  0.0203769368438031  0.0049714507807269  0.5058533185227456
  0.5055530258633776  0.5188523409454066  0.4930774982749077
  0.7487614840247639  0.5210248306745047  0.7618862769743208
  0.7478852704185384  0.7403708699425863  0.4958736179772896
 
  0.00000000E+00  0.00000000E+00  0.00000000E+00
  0.00000000E+00  0.00000000E+00  0.00000000E+00
  0.00000000E+00  0.00000000E+00  0.00000000E+00
  0.00000000E+00  0.00000000E+00  0.00000000E+00
  0.00000000E+00  0.00000000E+00  0.00000000E+00
  0.00000000E+00  0.00000000E+00  0.00000000E+00
  0.00000000E+00  0.00000000E+00  0.00000000E+00
  0.00000000E+00  0.00000000E+00  0.00000000E+00
  0.00000000E+00  0.00000000E+00  0.00000000E+00
  0.00000000E+00  0.00000000E+00  0.00000000E+00
  0.00000000E+00  0.00000000E+00  0.00000000E+00
  0.00000000E+00  0.00000000E+00  0.00000000E+00
  0.00000000E+00  0.00000000E+00  0.00000000E+00
  0.00000000E+00  0.00000000E+00  0.00000000E+00
  0.00000000E+00  0.00000000E+00  0.00000000E+00
  0.00000000E+00  0.00000000E+00  0.00000000E+00
  0.00000000E+00  0.00000000E+00  0.00000000E+00
  0.00000000E+00  0.00000000E+00  0.00000000E+00
  0.00000000E+00  0.00000000E+00  0.00000000E+00
  0.00000000E+00  0.00000000E+00  0.00000000E+00
  0.00000000E+00  0.00000000E+00  0.00000000E+00
  0.00000000E+00  0.00000000E+00  0.00000000E+00
  0.00000000E+00  0.00000000E+00  0.00000000E+00
  0.00000000E+00  0.00000000E+00  0.00000000E+00
  0.00000000E+00  0.00000000E+00  0.00000000E+00
  0.00000000E+00  0.00000000E+00  0.00000000E+00
  0.00000000E+00  0.00000000E+00  0.00000000E+00
  0.00000000E+00  0.00000000E+00  0.00000000E+00
  0.00000000E+00  0.00000000E+00  0.00000000E+00
  0.00000000E+00  0.00000000E+00  0.00000000E+00
  0.00000000E+00  0.00000000E+00  0.00000000E+00
  0.00000000E+00  0.00000000E+00  0.00000000E+00
  0.00000000E+00  0.00000000E+00  0.00000000E+00
  0.00000000E+00  0.00000000E+00  0.00000000E+00
  0.00000000E+00  0.00000000E+00  0.00000000E+00
  0.00000000E+00  0.00000000E+00  0.00000000E+00
  0.00000000E+00  0.00000000E+00  0.00000000E+00
  0.00000000E+00  0.00000000E+00  0.00000000E+00
  0.00000000E+00  0.00000000E+00  0.00000000E+00
  0.00000000E+00  0.00000000E+00  0.00000000E+00
  0.00000000E+00  0.00000000E+00  0.00000000E+00
  0.00000000E+00  0.00000000E+00  0.00000000E+00
  0.00000000E+00  0.00000000E+00  0.00000000E+00
  0.00000000E+00  0.00000000E+00  0.00000000E+00
  0.00000000E+00  0.00000000E+00  0.00000000E+00
  0.00000000E+00  0.00000000E+00  0.00000000E+00
  0.00000000E+00  0.00000000E+00  0.00000000E+00
  0.00000000E+00  0.00000000E+00  0.00000000E+00
  0.00000000E+00  0.00000000E+00  0.00000000E+00
  0.00000000E+00  0.00000000E+00  0.00000000E+00
  0.00000000E+00  0.00000000E+00  0.00000000E+00
  0.00000000E+00  0.00000000E+00  0.00000000E+00
  0.00000000E+00  0.00000000E+00  0.00000000E+00
  0.00000000E+00  0.00000000E+00  0.00000000E+00
  0.00000000E+00  0.00000000E+00  0.00000000E+00
  0.00000000E+00  0.00000000E+00  0.00000000E+00
  0.00000000E+00  0.00000000E+00  0.00000000E+00
  0.00000000E+00  0.00000000E+00  0.00000000E+00
  0.00000000E+00  0.00000000E+00  0.00000000E+00
  0.00000000E+00  0.00000000E+00  0.00000000E+00
  0.00000000E+00  0.00000000E+00  0.00000000E+00
  0.00000000E+00  0.00000000E+00  0.00000000E+00
  0.00000000E+00  0.00000000E+00  0.00000000E+00
  0.00000000E+00  0.00000000E+00  0.00000000E+00
