125-VTaCrMoW                            
   1.00000000000000     
     8.6038845345665145   -0.0279885749565977   -0.0015479062256148
    -0.0226648221796733    8.6636298155289104   -0.0103174813835503
     0.0292537121055678   -0.0253692357946147    8.6412819696695102
   Ta   W    V    N    C    Cr   Mo
     7     6     7    13    19     6     6
Direct
  0.0107796986916329 -0.0008209074718971 -0.0040440431269072
  0.2610115029355877  0.9971442655423328  0.2532823766498096
  0.2527099102541732  0.5016746810076181  0.2521775157143133
  0.5031491005486814  0.5006741795199404 -0.0002066620654298
  0.4978639702280911  0.2416446234133288  0.7519840987607735
 -0.0056284994118556  0.5021243167982216  0.5024596256783577
  0.4970244170661599  0.7605970572337220  0.7441235299236106
  0.9874884653831462  0.2303944977176543  0.2563908329970829
  0.7627555196133535  0.7445697068012626  0.0037112442533891
  0.0152556524585798  0.2442776420607859  0.7391988343373243
  0.7447121801433449  0.2317721488741273  0.4827809277041970
  0.0022963040353438  0.7377090352059902  0.7536644239636553
  0.2527539869124877  0.5016820787820245  0.7477059526640063
  0.2556902194447914  0.2727061407398517  0.9892645602593719
  0.5196303104081930  0.2395284126010637  0.2458216577629120
  0.7331171654822497  0.0084175436672469  0.2749553068524251
  0.7334578898468265  0.2337028424456794  0.9836291221132664
  0.2442361542124187  0.7339799056224997  0.0008591274215841
  0.2448816349840446  0.2397379743977739  0.5094711637953598
  0.2476778393755945  0.7575539312177936  0.5013170767521405
  0.2450822095719316  0.2482462650378647  0.2487907131703875
  0.2481262425679118 -0.0003353269958030  0.0029813221220794
 -0.0030700731782293  0.2440292680576454  0.0047852655412569
  0.7485480206782689  0.2461229857863555  0.2323870624722335
  0.7482420864667805 -0.0046852272358796  0.0094418690335608
  0.5039759491061453  0.9945980161616530  0.2388605064816125
  0.0002179614886008  0.4890338138175673  0.2520637388140121
  0.4978323202663165  0.7521415366209788 -0.0026543883502577
  0.9983486896743580 -0.0079373886655643  0.7529715871532036
  0.7530910707729596  0.2303752960803208  0.7421832776852788
  0.7547545356703097 -0.0073953502317825  0.5083519902053729
  0.4927345935365054  0.2505913562179383  0.4932042557958453
  0.4907721693905842  0.0014232724184713  0.7600043568550865
  0.9930947628140890 -0.0017235030579834  0.2526866347727288
  0.4929727951781302  0.2462095455466726  0.0046718796556423
  0.2611179985626268  0.7491418696441160  0.2500725686816414
  0.2379524659921467  0.5000409673075683  0.9992199285547935
  0.0077088498142673  0.7443724696769684  0.0046887620629273
  0.7394688271074304  0.7605773203563195  0.2460373649652610
  0.7595676261007760  0.4865739716000348  0.0085520394053329
  0.4970831799813136  0.4988390594848606  0.2486909085690433
  0.2525136454451841  0.2426474761190776  0.7529037007167990
  0.2746686398875143 -0.0000681092014033  0.5025759258771511
 -0.0002726007635639  0.2514037937628428  0.4988701329255124
  0.2474850252462205  0.7586315981779779  0.7521781688008199
  0.2496504238737850  0.4985109994881601  0.5016772344043775
  0.0046040666258961  0.7524503420543954  0.5039590208432998
 -0.0021130187617283  0.4881323763373321  0.7554737366886911
  0.7516243694750341  0.7685299978152748  0.7494065181169672
  0.7467013748428259  0.4855544394386802  0.5064847036872728
  0.4941863769962656  0.7697233575397704  0.4971109086930503
  0.4998769958435964  0.5018113319257280  0.7472928871139105
  0.5226459740215583  0.0212434927563262  0.9910746028295770
 -0.0157058388996303  0.5241595983121151  0.9755442144406899
  0.4999429398314674  0.7410165912479344  0.2788703008937618
  0.2396194809020538  0.0055853789530899  0.7225862302097421
  0.5232815130297706  0.0205062239029271  0.4686970740967109
  0.7212352900610054  0.0004467828100916  0.7846028519847541
  0.0052635309879415  0.7653258381925369  0.2528885150300401
  0.7334594682312929  0.5190681981709925  0.2541367535654855
  0.0204888336959549  0.0050139192688965  0.5061109154300618
  0.5056353363470782  0.5190078382175201  0.4930626736793597
  0.7489180732242895  0.5215786523315965  0.7617300542254696
  0.7478047716801043  0.7404093395727981  0.4962246956882279
 
  0.00000000E+00  0.00000000E+00  0.00000000E+00
  0.00000000E+00  0.00000000E+00  0.00000000E+00
  0.00000000E+00  0.00000000E+00  0.00000000E+00
  0.00000000E+00  0.00000000E+00  0.00000000E+00
  0.00000000E+00  0.00000000E+00  0.00000000E+00
  0.00000000E+00  0.00000000E+00  0.00000000E+00
  0.00000000E+00  0.00000000E+00  0.00000000E+00
  0.00000000E+00  0.00000000E+00  0.00000000E+00
  0.00000000E+00  0.00000000E+00  0.00000000E+00
  0.00000000E+00  0.00000000E+00  0.00000000E+00
  0.00000000E+00  0.00000000E+00  0.00000000E+00
  0.00000000E+00  0.00000000E+00  0.00000000E+00
  0.00000000E+00  0.00000000E+00  0.00000000E+00
  0.00000000E+00  0.00000000E+00  0.00000000E+00
  0.00000000E+00  0.00000000E+00  0.00000000E+00
  0.00000000E+00  0.00000000E+00  0.00000000E+00
  0.00000000E+00  0.00000000E+00  0.00000000E+00
  0.00000000E+00  0.00000000E+00  0.00000000E+00
  0.00000000E+00  0.00000000E+00  0.00000000E+00
  0.00000000E+00  0.00000000E+00  0.00000000E+00
  0.00000000E+00  0.00000000E+00  0.00000000E+00
  0.00000000E+00  0.00000000E+00  0.00000000E+00
  0.00000000E+00  0.00000000E+00  0.00000000E+00
  0.00000000E+00  0.00000000E+00  0.00000000E+00
  0.00000000E+00  0.00000000E+00  0.00000000E+00
  0.00000000E+00  0.00000000E+00  0.00000000E+00
  0.00000000E+00  0.00000000E+00  0.00000000E+00
  0.00000000E+00  0.00000000E+00  0.00000000E+00
  0.00000000E+00  0.00000000E+00  0.00000000E+00
  0.00000000E+00  0.00000000E+00  0.00000000E+00
  0.00000000E+00  0.00000000E+00  0.00000000E+00
  0.00000000E+00  0.00000000E+00  0.00000000E+00
  0.00000000E+00  0.00000000E+00  0.00000000E+00
  0.00000000E+00  0.00000000E+00  0.00000000E+00
  0.00000000E+00  0.00000000E+00  0.00000000E+00
  0.00000000E+00  0.00000000E+00  0.00000000E+00
  0.00000000E+00  0.00000000E+00  0.00000000E+00
  0.00000000E+00  0.00000000E+00  0.00000000E+00
  0.00000000E+00  0.00000000E+00  0.00000000E+00
  0.00000000E+00  0.00000000E+00  0.00000000E+00
  0.00000000E+00  0.00000000E+00  0.00000000E+00
  0.00000000E+00  0.00000000E+00  0.00000000E+00
  0.00000000E+00  0.00000000E+00  0.00000000E+00
  0.00000000E+00  0.00000000E+00  0.00000000E+00
  0.00000000E+00  0.00000000E+00  0.00000000E+00
  0.00000000E+00  0.00000000E+00  0.00000000E+00
  0.00000000E+00  0.00000000E+00  0.00000000E+00
  0.00000000E+00  0.00000000E+00  0.00000000E+00
  0.00000000E+00  0.00000000E+00  0.00000000E+00
  0.00000000E+00  0.00000000E+00  0.00000000E+00
  0.00000000E+00  0.00000000E+00  0.00000000E+00
  0.00000000E+00  0.00000000E+00  0.00000000E+00
  0.00000000E+00  0.00000000E+00  0.00000000E+00
  0.00000000E+00  0.00000000E+00  0.00000000E+00
  0.00000000E+00  0.00000000E+00  0.00000000E+00
  0.00000000E+00  0.00000000E+00  0.00000000E+00
  0.00000000E+00  0.00000000E+00  0.00000000E+00
  0.00000000E+00  0.00000000E+00  0.00000000E+00
  0.00000000E+00  0.00000000E+00  0.00000000E+00
  0.00000000E+00  0.00000000E+00  0.00000000E+00
  0.00000000E+00  0.00000000E+00  0.00000000E+00
  0.00000000E+00  0.00000000E+00  0.00000000E+00
  0.00000000E+00  0.00000000E+00  0.00000000E+00
  0.00000000E+00  0.00000000E+00  0.00000000E+00
