SYSTEM=N
ISTART=0
ICHARG=2
PREC=Accurate
LREAL=.F.
IBRION=2
ISIF=2
NSW=100
POTIM=0.5
EDIFFG=-0.01
ENCUT=400
NELM=60
EDIFF=1E-6
LCHARG=.F.
LWAVE=.F.
ISMEAR=0
SIGMA=0.005
ALGO=Normal
