120-ZrTaCrMoW                           
   1.00000000000000     
     8.8115075795698150   -0.0036219370379810   -0.0078532603793428
     0.0019445769425400    8.8668597333113190   -0.0031616625521152
     0.0238297616184324   -0.0183531180001594    8.8970893577103691
   Ta   W    Zr   N    C    Cr   Mo
     7     6     7    13    19     6     6
Direct
  0.9981176141147998  0.9874283631153946  0.0062500695680483
  0.2538513665392328  0.9913990550335955  0.2619941201953199
  0.2484658771570677  0.5120831549102541  0.2433703055222246
  0.5062273615726535  0.4935417956820727  0.9921709943483635
  0.4975619878854783  0.2424534675732536  0.7496570037018992
 -0.0035508292734186  0.5028353170869889  0.5052706504907802
  0.5060944051392063  0.7590823476590655  0.7364846992315693
  0.9921114442730471  0.2295617214307301  0.2662547591808286
  0.7644549406833012  0.7432338808029749 -0.0046168292492178
  0.0193644632081569  0.2389516174780484  0.7372066939255159
  0.7644654101965266  0.2467100507374993  0.4854792179918830
  0.0024936166809200  0.7417757114961910  0.7577781525396399
  0.2509523939963909  0.5071178971634652  0.7545324869752325
  0.2446723394658431  0.2488940150174048  0.9969401160626519
  0.5024683596595521  0.2492898462060039  0.2505721136003086
  0.7368819890788121  0.9894341636341601  0.2636109490658044
  0.7556824843049951  0.2505291229546366  0.9868036889212810
  0.2666668871600709  0.7583606914404611  0.9996156124895336
  0.2577633961135588  0.2536310471348493  0.5028639069097021
  0.2452795687202485  0.7537516418429492  0.5023729008526406
  0.2437766514887370  0.2504833999082757  0.2516789600054304
  0.2411992355294245  0.0027516091127217  0.0096703362651609
 -0.0007117009213233  0.2346855895732513  0.0121396814942506
  0.7545082542083917  0.2475337054692922  0.2456464272731788
  0.7478972238002602  0.9912633514337581 -0.0017017537067516
  0.4904245478161496  0.9901358649467877  0.2373446960333772
  0.0033015831729048  0.4822819128507891  0.2625492477285403
  0.5151675480698016  0.7527351094481743 -0.0177865105283108
  0.9883425034680634 -0.0017450797131324  0.7625528248168083
  0.7547557015140185  0.2394644343807072  0.7396403947197798
  0.7453222074521618  0.0101926271585899  0.5166834641749998
  0.5134422903243924  0.2456285758122410  0.5047957114989459
  0.5092846292218697  0.0011068880580164  0.7466561030759871
 -0.0013950018803774 -0.0025496667944896  0.2612248968013185
  0.5027068147352491  0.2517359254496155 -0.0054983884139707
  0.2559573551510038  0.7519760513754536  0.2519070735199954
  0.2427222359793247  0.5039422159511447  0.9980227488161848
  0.0065796989912961  0.7416768351854260  0.0029472106174705
  0.7419388235125614  0.7372838385676906  0.2419251297367376
  0.7628469694678580  0.5041963781679145  0.0077257684400346
  0.4925479057594724  0.5120409979682405  0.2431516033412203
  0.2560022760179487  0.2421051351253650  0.7496617030720545
  0.2572172438678824  0.0028556849647312  0.5132715264484518
  0.0026606462205756  0.2577302142881815  0.5046881134428681
  0.2527498832161225  0.7617090252738908  0.7504847254716714
  0.2487049823523438  0.5041208723417321  0.5001210435076852
  0.9883730500626002  0.7543120703438647  0.5058946701291136
  0.9981388935472768  0.4912475678710204  0.7532188234732289
  0.7561492594224479  0.7618146862246711  0.7427034053158913
  0.7464584532064281  0.4879080235384862  0.5091334364811073
  0.5059537058484870  0.7658254451729969  0.4939230118017898
  0.5002827170761945  0.5017581734089259  0.7439528977316423
  0.5230908617813359  0.0237304269708693  0.9752921584547166
  0.9901299351501828  0.5293614949325247  0.9665410251561037
  0.5112508622786793  0.7357464433770309  0.2842208595497697
  0.2138523943208985  0.0003755024449293  0.7256261260504684
  0.4803071661245810  0.0012104213501153  0.4856877245026741
  0.7263104655288768  0.9753041967197109  0.7744472571851909
 -0.0070334360524334  0.7674352421638361  0.2398295994349726
  0.7265507162008695  0.5049200562895912  0.2594447048386351
  0.0033863285660601  0.0156950795517857  0.5147941581429224
  0.5021473889170701  0.5162092690135308  0.4908775181375246
  0.7492911351335552  0.5240213297599543  0.7592705200243055
  0.7473848936743170  0.7277179171617941  0.4910278896128335
 
  0.00000000E+00  0.00000000E+00  0.00000000E+00
  0.00000000E+00  0.00000000E+00  0.00000000E+00
  0.00000000E+00  0.00000000E+00  0.00000000E+00
  0.00000000E+00  0.00000000E+00  0.00000000E+00
  0.00000000E+00  0.00000000E+00  0.00000000E+00
  0.00000000E+00  0.00000000E+00  0.00000000E+00
  0.00000000E+00  0.00000000E+00  0.00000000E+00
  0.00000000E+00  0.00000000E+00  0.00000000E+00
  0.00000000E+00  0.00000000E+00  0.00000000E+00
  0.00000000E+00  0.00000000E+00  0.00000000E+00
  0.00000000E+00  0.00000000E+00  0.00000000E+00
  0.00000000E+00  0.00000000E+00  0.00000000E+00
  0.00000000E+00  0.00000000E+00  0.00000000E+00
  0.00000000E+00  0.00000000E+00  0.00000000E+00
  0.00000000E+00  0.00000000E+00  0.00000000E+00
  0.00000000E+00  0.00000000E+00  0.00000000E+00
  0.00000000E+00  0.00000000E+00  0.00000000E+00
  0.00000000E+00  0.00000000E+00  0.00000000E+00
  0.00000000E+00  0.00000000E+00  0.00000000E+00
  0.00000000E+00  0.00000000E+00  0.00000000E+00
  0.00000000E+00  0.00000000E+00  0.00000000E+00
  0.00000000E+00  0.00000000E+00  0.00000000E+00
  0.00000000E+00  0.00000000E+00  0.00000000E+00
  0.00000000E+00  0.00000000E+00  0.00000000E+00
  0.00000000E+00  0.00000000E+00  0.00000000E+00
  0.00000000E+00  0.00000000E+00  0.00000000E+00
  0.00000000E+00  0.00000000E+00  0.00000000E+00
  0.00000000E+00  0.00000000E+00  0.00000000E+00
  0.00000000E+00  0.00000000E+00  0.00000000E+00
  0.00000000E+00  0.00000000E+00  0.00000000E+00
  0.00000000E+00  0.00000000E+00  0.00000000E+00
  0.00000000E+00  0.00000000E+00  0.00000000E+00
  0.00000000E+00  0.00000000E+00  0.00000000E+00
  0.00000000E+00  0.00000000E+00  0.00000000E+00
  0.00000000E+00  0.00000000E+00  0.00000000E+00
  0.00000000E+00  0.00000000E+00  0.00000000E+00
  0.00000000E+00  0.00000000E+00  0.00000000E+00
  0.00000000E+00  0.00000000E+00  0.00000000E+00
  0.00000000E+00  0.00000000E+00  0.00000000E+00
  0.00000000E+00  0.00000000E+00  0.00000000E+00
  0.00000000E+00  0.00000000E+00  0.00000000E+00
  0.00000000E+00  0.00000000E+00  0.00000000E+00
  0.00000000E+00  0.00000000E+00  0.00000000E+00
  0.00000000E+00  0.00000000E+00  0.00000000E+00
  0.00000000E+00  0.00000000E+00  0.00000000E+00
  0.00000000E+00  0.00000000E+00  0.00000000E+00
  0.00000000E+00  0.00000000E+00  0.00000000E+00
  0.00000000E+00  0.00000000E+00  0.00000000E+00
  0.00000000E+00  0.00000000E+00  0.00000000E+00
  0.00000000E+00  0.00000000E+00  0.00000000E+00
  0.00000000E+00  0.00000000E+00  0.00000000E+00
  0.00000000E+00  0.00000000E+00  0.00000000E+00
  0.00000000E+00  0.00000000E+00  0.00000000E+00
  0.00000000E+00  0.00000000E+00  0.00000000E+00
  0.00000000E+00  0.00000000E+00  0.00000000E+00
  0.00000000E+00  0.00000000E+00  0.00000000E+00
  0.00000000E+00  0.00000000E+00  0.00000000E+00
  0.00000000E+00  0.00000000E+00  0.00000000E+00
  0.00000000E+00  0.00000000E+00  0.00000000E+00
  0.00000000E+00  0.00000000E+00  0.00000000E+00
  0.00000000E+00  0.00000000E+00  0.00000000E+00
  0.00000000E+00  0.00000000E+00  0.00000000E+00
  0.00000000E+00  0.00000000E+00  0.00000000E+00
  0.00000000E+00  0.00000000E+00  0.00000000E+00
