48-ZrVNbMoW                             
   1.00000000000000     
     8.8398444691386047    0.0133230071507090    0.0125657726829841
     0.0193865955143801    8.8396818209840919    0.0006223065781550
     0.0443870978025577   -0.0146361345117215    8.8428098526658072
   Zr   Nb   V    N    C    W    Mo
     7     6     7    13    19     6     6
Direct
  0.0019262909451739  0.0037379264937614  0.9998262418016609
  0.2586650287439611  0.0081113083125334  0.2430263678439264
  0.2477489691602123  0.4911943659784660  0.2534024234120348
  0.5041257035261796  0.4953296271882029  0.0014404326424849
  0.5002482500632024  0.2486415097484192  0.7400403049416903
  0.9983676579516100  0.5034063903715290  0.5008457701570513
  0.4957090405309899  0.7568696823735188  0.7554435688745810
  0.9845458421105054  0.2384318855077724  0.2560578528560947
  0.7650950676267271  0.7435228422746202  0.0119085878790663
  0.0006602054730413  0.2615133436880869  0.7508154965955700
  0.7511716470885631  0.2516488090287442  0.4889376130879297
 -0.0005186656739492  0.7460020398385490  0.7495461104640352
  0.2536899901609399  0.5013990760314955  0.7445469570057769
  0.2497729793782224  0.2703965380139874  0.9807561784856775
  0.5289393518564719  0.2593626015020630  0.2444557443719574
  0.7451213259904466  0.9839613850033608  0.2779777799714018
  0.7337451558511351  0.2345191298117702  0.9847720821577536
  0.2302871817891342  0.7279627704008779 -0.0025716380336791
  0.2328133471899816  0.2394655641180177  0.5147078097911930
  0.2436762834905695  0.7649863966478976  0.5059199968652444
  0.2389593031865078  0.2492007877552050  0.2463001931524732
  0.2603693351938804  0.0023007785505408  0.9874501360453075
  0.9956761844951085  0.2546343934696345  0.0028986345135677
  0.7446496854460558  0.2374975113318482  0.2386169228327373
  0.7523363171708597  0.0007610260531711  0.0246279116246514
  0.5142609467270983  0.9971813240273740  0.2364698950860439
  0.9946945284213085  0.4969592944062927  0.2444370095777732
  0.4995344926130773  0.7599658145763477  0.0093870330541202
  0.9888068647110514  0.0034442066873624  0.7438843549998243
  0.7534427298322501  0.2414514930908100  0.7507972818068150
  0.7525558134666108  0.0003953396528309  0.5223728903142539
  0.4995139126364326  0.2360461534547866  0.4815896553208121
  0.4940553799639870  0.0025987062817879  0.7432340075167940
  0.9929000996991818  0.0026903260254202  0.2567272574519397
  0.4911123749037844  0.2458736014962280  0.0037580048785281
  0.2549836099203940  0.7504334378327794  0.2468971619781855
  0.2445816463089650  0.4979432552049644  0.9958912868213584
  0.0053348090740732  0.7427549838988197  0.0065575995748194
  0.7532594605704940  0.7453293893886103  0.2531717055176618
  0.7585739341033957  0.4873911986402544  0.0081854686993142
  0.4996226731199117  0.4949112198868421  0.2549483017688562
  0.2455715693515965  0.2496024345169317  0.7478389646683273
  0.2701899689859206  0.0041765805849932  0.5013225581624571
  0.0014864259805921  0.2480647033468483  0.5022336142551158
  0.2430008229281216  0.7568811869334011  0.7540386795837197
  0.2569906562817256  0.4967469212205364  0.5034440020803774
  0.0024993950814133  0.7603816596708178  0.5026610441247199
  0.0014384508071274  0.5032244251013358  0.7504535549051496
  0.7508053834692403  0.7539921734918084  0.7529585700611175
  0.7430987744763264  0.4982845729944973  0.5072636335355987
  0.4919305656715262  0.7537726262668856  0.4972181057177925
  0.5033699544166838  0.5033291775462641  0.7428518685731009
  0.5230012816232147  0.0153129264500134  0.9894168679610341
  0.9982464323604442  0.4987684697257686  0.9863095565309449
  0.4872728192290218  0.7411583136231474  0.2543712052245119
  0.2346472265662419  0.0033482906210251  0.7369248775310930
  0.5166440499417481  0.9856816181527466  0.4727631865620083
  0.7401522657977790  0.9886087084660711  0.7756763462160340
  0.0109168370955452  0.7715836126446822  0.2606026806209102
  0.7363153509517798  0.4960910553239718  0.2597637914058460
  0.0231951204519732  0.0028036372527485  0.4981290869339930
  0.5030127618079462  0.5246897235105188  0.4931784578033895
  0.7526421377150097  0.5179380055267164  0.7625271269071784
  0.7485573701914352  0.7453314939827059  0.4879939629283240
 
  0.00000000E+00  0.00000000E+00  0.00000000E+00
  0.00000000E+00  0.00000000E+00  0.00000000E+00
  0.00000000E+00  0.00000000E+00  0.00000000E+00
  0.00000000E+00  0.00000000E+00  0.00000000E+00
  0.00000000E+00  0.00000000E+00  0.00000000E+00
  0.00000000E+00  0.00000000E+00  0.00000000E+00
  0.00000000E+00  0.00000000E+00  0.00000000E+00
  0.00000000E+00  0.00000000E+00  0.00000000E+00
  0.00000000E+00  0.00000000E+00  0.00000000E+00
  0.00000000E+00  0.00000000E+00  0.00000000E+00
  0.00000000E+00  0.00000000E+00  0.00000000E+00
  0.00000000E+00  0.00000000E+00  0.00000000E+00
  0.00000000E+00  0.00000000E+00  0.00000000E+00
  0.00000000E+00  0.00000000E+00  0.00000000E+00
  0.00000000E+00  0.00000000E+00  0.00000000E+00
  0.00000000E+00  0.00000000E+00  0.00000000E+00
  0.00000000E+00  0.00000000E+00  0.00000000E+00
  0.00000000E+00  0.00000000E+00  0.00000000E+00
  0.00000000E+00  0.00000000E+00  0.00000000E+00
  0.00000000E+00  0.00000000E+00  0.00000000E+00
  0.00000000E+00  0.00000000E+00  0.00000000E+00
  0.00000000E+00  0.00000000E+00  0.00000000E+00
  0.00000000E+00  0.00000000E+00  0.00000000E+00
  0.00000000E+00  0.00000000E+00  0.00000000E+00
  0.00000000E+00  0.00000000E+00  0.00000000E+00
  0.00000000E+00  0.00000000E+00  0.00000000E+00
  0.00000000E+00  0.00000000E+00  0.00000000E+00
  0.00000000E+00  0.00000000E+00  0.00000000E+00
  0.00000000E+00  0.00000000E+00  0.00000000E+00
  0.00000000E+00  0.00000000E+00  0.00000000E+00
  0.00000000E+00  0.00000000E+00  0.00000000E+00
  0.00000000E+00  0.00000000E+00  0.00000000E+00
  0.00000000E+00  0.00000000E+00  0.00000000E+00
  0.00000000E+00  0.00000000E+00  0.00000000E+00
  0.00000000E+00  0.00000000E+00  0.00000000E+00
  0.00000000E+00  0.00000000E+00  0.00000000E+00
  0.00000000E+00  0.00000000E+00  0.00000000E+00
  0.00000000E+00  0.00000000E+00  0.00000000E+00
  0.00000000E+00  0.00000000E+00  0.00000000E+00
  0.00000000E+00  0.00000000E+00  0.00000000E+00
  0.00000000E+00  0.00000000E+00  0.00000000E+00
  0.00000000E+00  0.00000000E+00  0.00000000E+00
  0.00000000E+00  0.00000000E+00  0.00000000E+00
  0.00000000E+00  0.00000000E+00  0.00000000E+00
  0.00000000E+00  0.00000000E+00  0.00000000E+00
  0.00000000E+00  0.00000000E+00  0.00000000E+00
  0.00000000E+00  0.00000000E+00  0.00000000E+00
  0.00000000E+00  0.00000000E+00  0.00000000E+00
  0.00000000E+00  0.00000000E+00  0.00000000E+00
  0.00000000E+00  0.00000000E+00  0.00000000E+00
  0.00000000E+00  0.00000000E+00  0.00000000E+00
  0.00000000E+00  0.00000000E+00  0.00000000E+00
  0.00000000E+00  0.00000000E+00  0.00000000E+00
  0.00000000E+00  0.00000000E+00  0.00000000E+00
  0.00000000E+00  0.00000000E+00  0.00000000E+00
  0.00000000E+00  0.00000000E+00  0.00000000E+00
  0.00000000E+00  0.00000000E+00  0.00000000E+00
  0.00000000E+00  0.00000000E+00  0.00000000E+00
  0.00000000E+00  0.00000000E+00  0.00000000E+00
  0.00000000E+00  0.00000000E+00  0.00000000E+00
  0.00000000E+00  0.00000000E+00  0.00000000E+00
  0.00000000E+00  0.00000000E+00  0.00000000E+00
  0.00000000E+00  0.00000000E+00  0.00000000E+00
  0.00000000E+00  0.00000000E+00  0.00000000E+00
