94-HfNbTaCrW
1.0
        8.9324998856         0.0000000000         0.0000000000
        0.0057529959         9.0555983389         0.0000000000
        0.0321018024        -0.0157434634         8.9371280720
   Nb   Ta   Hf    N    C   Cr    W
    7    6    7   13   19    6    6
Direct
     0.996880010         0.992049966         0.999240016
     0.253980029         0.997149955         0.249119995
     0.248030026         0.501650004         0.249550007
     0.505010064         0.497459979         0.998340030
     0.504790032         0.246310011         0.747100015
     0.994279922         0.504499991         0.497789998
     0.499500053         0.754819991         0.748170042
     0.994370038         0.236170013         0.263799988
     0.757179996         0.741029975         0.011000000
     0.002010000         0.255410000         0.738940012
     0.753070012         0.261630011         0.505330021
     0.995140044         0.744920036         0.745119972
     0.256799994         0.494620022         0.745450023
     0.247889990         0.248389996         0.996579968
     0.508330003         0.256769993         0.253760007
     0.748790037         0.987879994         0.269670011
     0.757189997         0.256030008         0.995919971
     0.247620010         0.749739994         0.999740056
     0.252720006         0.248230007         0.500150033
     0.244579991         0.750489986         0.499839989
     0.249820015         0.249429981         0.248249995
     0.261469989         0.999840020         0.992959963
     0.002810000         0.250240003         0.001300000
     0.753139981         0.246169995         0.254920017
     0.747670012         0.997479996         0.012020000
     0.507149938         0.999769995         0.246730001
     0.990519995         0.480880025         0.241009985
     0.505190052         0.761309991         0.008550000
     0.988969887         0.002020000         0.737089993
     0.757449958         0.244379974         0.748969988
     0.736320011         0.004170000         0.510630003
     0.505639957         0.232649985         0.495449970
     0.500089979         0.000610000         0.734719981
     0.997199999         0.997719921         0.258999992
     0.504279969         0.246729996         0.002620000
     0.251339987         0.749580016         0.249109991
     0.243280004         0.500729973         0.995109941
     0.998370047         0.743139962         0.004600000
     0.756329999         0.738910028         0.257669995
     0.758390040         0.503159976         0.002880000
     0.507000019         0.503330017         0.258789988
     0.249009988         0.253150002         0.748540003
     0.244460002         0.998239960         0.502879976
     0.998040087         0.242299994         0.501280031
     0.241770017         0.753409971         0.750180018
     0.258410006         0.500620017         0.501290008
     0.990000035         0.762150026         0.497459999
     0.992039962         0.500559993         0.751380017
     0.750360054         0.748880001         0.747560039
     0.740360015         0.501970003         0.500670027
     0.505750056         0.749580019         0.497200002
     0.505010030         0.502179985         0.739120030
     0.515889968         0.013579999         0.980750076
     0.998419942         0.509769983         0.986130037
     0.503790030         0.739269966         0.259050012
     0.237800020         0.010820000         0.746079982
     0.479579994         0.983080005         0.497179994
     0.742790028         0.978699937         0.764509951
     0.998649978         0.775739992         0.261019998
     0.735510009         0.514680037         0.266660010
     0.023619999         0.997830010         0.495570018
     0.505389996         0.528330052         0.499179992
     0.738760034         0.528280025         0.738149990
     0.754000034         0.729379988         0.491169969
