70-TiHfTaCrW                            
   1.00000000000000     
     8.7876361166766195    0.0254042463368358   -0.0151037813856241
     0.0318669648550370    8.7711932799777745    0.0053217018285356
     0.0164077988143144   -0.0098038319316966    8.7725993050045474
  Hf              Ta              Ti              N               C               Cr              W             
     7     6     7    13    19     6     6
Direct
  0.0015662447811514  0.9977079230407476  0.9972814188796533
  0.2683010328249540  0.0026034649431616  0.2453056564356150
  0.2465005360425745  0.4946597671958026  0.2466608001174984
  0.5000628789806366  0.4994225026564950  0.0017456410457950
  0.5053255511703107  0.2447129433751537  0.7440420439094462
  0.9990774174702765  0.5020797149702699  0.5010267451551952
  0.4963646317005053  0.7597713289016629  0.7498510405515517
  0.9911289458788995  0.2406848114842674  0.2505946041573942
  0.7544726654022182  0.7465726378649347  0.0101994480698059
  0.0023910749742353  0.2505256173849734  0.7507607337040639
  0.7519361288613687  0.2469948092308828  0.4979648828152314
  0.9993653654651881  0.7506904503903041  0.7502586242335592
  0.2498937917858519  0.4959101325149030  0.7500578335229680
  0.2581137200939344  0.2432586260267793  0.9899053005952293
  0.5106160362946239  0.2535381503166496  0.2511325821414694
  0.7321208071558061  0.9915967283684209  0.2602297656633325
  0.7420882329644595  0.2429200766148259  0.9998473199069997
  0.2465390803750639  0.7475773462991502  0.9969529840643683
  0.2508990839938428  0.2460593334378273  0.5068865641500064
  0.2512110074716926  0.7521348607739133  0.5023882145719997
  0.2488968478848813  0.2481527946007861  0.2476264850141710
  0.2555829074292675  0.0015607228393322  0.9958989207038246
  0.0008073852171368  0.2517080775105088  0.9996472697029654
  0.7470409687506431  0.2409045593764174  0.2469579139959616
  0.7457828631123715  0.9987909751152437  0.0068850698418177
  0.5082381049417100  0.0009334685977026  0.2576976887935936
  0.9953634738860165  0.4991222430554756  0.2454056418077931
  0.4999056779416305  0.7597631536200639  0.0044945072774989
  0.9881513415907991  0.0040159570504458  0.7435675908581885
  0.7539926899278697  0.2456312560561556  0.7498410759071983
  0.7609805964595612  0.0046903073690449  0.4921229805062398
  0.5015925692407850  0.2464722866544564  0.4929901013216123
  0.5172675960469093  0.0020706647197294  0.7461213215489808
  0.9995242895615454  0.0007392436011424  0.2509830949931744
  0.5013033384980999  0.2411315283104731  0.0019207705212583
  0.2540253940672285  0.7497858673624165  0.2491774515331973
  0.2425542015659737  0.5000408222886130  0.9955475554702647
  0.0029643369220000  0.7434647424430288  0.0037091833084930
  0.7467796708878460  0.7468409133899949  0.2529143077936716
  0.7612380661573898  0.4938727640041732  0.0060258743324415
  0.4979138881071994  0.5011481783364052  0.2505604932724396
  0.2507026345535470  0.2469154880496185  0.7487986804292984
  0.2559488528499894  0.9999617466342019  0.5102920057944874
  0.0035329595849740  0.2486491548168075  0.5002000111258310
  0.2443077588388258  0.7574679376959000  0.7509979335281493
  0.2548947078129578  0.5016229336308410  0.5002780174185472
  0.9991002319000144  0.7569371066735102  0.4997210199133824
  0.0000176894956709  0.5011672388574516  0.7531699158828196
  0.7495189605844734  0.7566006162597932  0.7489736754146405
  0.7467210793231287  0.4954748117998990  0.5068407395542810
  0.4982701457570344  0.7652887996101504  0.4889904916873694
  0.5038698859207699  0.5024106277385464  0.7438884310273715
  0.5196516530266464  0.0112959943108375  0.9735938081316962
  0.9988563347641274  0.5134421094337702  0.9800892421578984
  0.4769890205618558  0.7355338474585875  0.2579161179609841
  0.2261337394319376  0.0136837134838561  0.7439697658743754
  0.4717703757630962  0.9931667016389917  0.5164884237390975
  0.7352006518259148  0.9737423723418223  0.7840122644021364
  0.0165197174996699  0.7664384666505452  0.2546267122903802
  0.7376980368338089  0.4966393448060017  0.2539721341446919
  0.0200313661972735  0.0033156446005712  0.4962092788380547
  0.5039613189883444  0.5181365386129710  0.4888411898502093
  0.7542356659515802  0.5156963197696988  0.7633617337768211
  0.7441871466498983  0.7361504840328693  0.4915810408615344
 
  0.00000000E+00  0.00000000E+00  0.00000000E+00
  0.00000000E+00  0.00000000E+00  0.00000000E+00
  0.00000000E+00  0.00000000E+00  0.00000000E+00
  0.00000000E+00  0.00000000E+00  0.00000000E+00
  0.00000000E+00  0.00000000E+00  0.00000000E+00
  0.00000000E+00  0.00000000E+00  0.00000000E+00
  0.00000000E+00  0.00000000E+00  0.00000000E+00
  0.00000000E+00  0.00000000E+00  0.00000000E+00
  0.00000000E+00  0.00000000E+00  0.00000000E+00
  0.00000000E+00  0.00000000E+00  0.00000000E+00
  0.00000000E+00  0.00000000E+00  0.00000000E+00
  0.00000000E+00  0.00000000E+00  0.00000000E+00
  0.00000000E+00  0.00000000E+00  0.00000000E+00
  0.00000000E+00  0.00000000E+00  0.00000000E+00
  0.00000000E+00  0.00000000E+00  0.00000000E+00
  0.00000000E+00  0.00000000E+00  0.00000000E+00
  0.00000000E+00  0.00000000E+00  0.00000000E+00
  0.00000000E+00  0.00000000E+00  0.00000000E+00
  0.00000000E+00  0.00000000E+00  0.00000000E+00
  0.00000000E+00  0.00000000E+00  0.00000000E+00
  0.00000000E+00  0.00000000E+00  0.00000000E+00
  0.00000000E+00  0.00000000E+00  0.00000000E+00
  0.00000000E+00  0.00000000E+00  0.00000000E+00
  0.00000000E+00  0.00000000E+00  0.00000000E+00
  0.00000000E+00  0.00000000E+00  0.00000000E+00
  0.00000000E+00  0.00000000E+00  0.00000000E+00
  0.00000000E+00  0.00000000E+00  0.00000000E+00
  0.00000000E+00  0.00000000E+00  0.00000000E+00
  0.00000000E+00  0.00000000E+00  0.00000000E+00
  0.00000000E+00  0.00000000E+00  0.00000000E+00
  0.00000000E+00  0.00000000E+00  0.00000000E+00
  0.00000000E+00  0.00000000E+00  0.00000000E+00
  0.00000000E+00  0.00000000E+00  0.00000000E+00
  0.00000000E+00  0.00000000E+00  0.00000000E+00
  0.00000000E+00  0.00000000E+00  0.00000000E+00
  0.00000000E+00  0.00000000E+00  0.00000000E+00
  0.00000000E+00  0.00000000E+00  0.00000000E+00
  0.00000000E+00  0.00000000E+00  0.00000000E+00
  0.00000000E+00  0.00000000E+00  0.00000000E+00
  0.00000000E+00  0.00000000E+00  0.00000000E+00
  0.00000000E+00  0.00000000E+00  0.00000000E+00
  0.00000000E+00  0.00000000E+00  0.00000000E+00
  0.00000000E+00  0.00000000E+00  0.00000000E+00
  0.00000000E+00  0.00000000E+00  0.00000000E+00
  0.00000000E+00  0.00000000E+00  0.00000000E+00
  0.00000000E+00  0.00000000E+00  0.00000000E+00
  0.00000000E+00  0.00000000E+00  0.00000000E+00
  0.00000000E+00  0.00000000E+00  0.00000000E+00
  0.00000000E+00  0.00000000E+00  0.00000000E+00
  0.00000000E+00  0.00000000E+00  0.00000000E+00
  0.00000000E+00  0.00000000E+00  0.00000000E+00
  0.00000000E+00  0.00000000E+00  0.00000000E+00
  0.00000000E+00  0.00000000E+00  0.00000000E+00
  0.00000000E+00  0.00000000E+00  0.00000000E+00
  0.00000000E+00  0.00000000E+00  0.00000000E+00
  0.00000000E+00  0.00000000E+00  0.00000000E+00
  0.00000000E+00  0.00000000E+00  0.00000000E+00
  0.00000000E+00  0.00000000E+00  0.00000000E+00
  0.00000000E+00  0.00000000E+00  0.00000000E+00
  0.00000000E+00  0.00000000E+00  0.00000000E+00
  0.00000000E+00  0.00000000E+00  0.00000000E+00
  0.00000000E+00  0.00000000E+00  0.00000000E+00
  0.00000000E+00  0.00000000E+00  0.00000000E+00
  0.00000000E+00  0.00000000E+00  0.00000000E+00
