70-TiHfTaCrW                            
   1.00000000000000     
     8.9364791126814165    0.0226476174027493   -0.0193880361143007
     0.0293139953706007    8.8909303695131889    0.0081976124593900
     0.0126072478569027   -0.0071241285006436    8.8940258265208989
  Hf              Ta              Ti              N               C               Cr              W             
     7     6     7    13    19     6     6
Direct
  0.0017686946569196  0.0013455029704087  0.9973830464895344
  0.2686093636112565  0.0032528402606435  0.2446818723319396
  0.2467827064956772  0.4935285114392875  0.2468613398000388
  0.4991535999599808  0.5036681247989203  0.0013759862454126
  0.5047026646600580  0.2449129342177425  0.7418357825056107
  0.9995774034688605  0.5016948214420048  0.5007623232389300
  0.4964050324914550  0.7594787171331325  0.7499850958081531
  0.9917984829070681  0.2422591722470076  0.2481776106716560
  0.7546017849252337  0.7463796865775866  0.0095300490056354
  0.0017442057624355  0.2507009763149789  0.7536871696223129
  0.7510460444560946  0.2473362887812691  0.4982738355565531
  0.9994969707964944  0.7511737175018823  0.7507448104341210
  0.2507345778094588  0.4956962134226907  0.7495998164150536
  0.2662011012500125  0.2474678105504142  0.9909300011488276
  0.5144260668473963  0.2542081375383840  0.2432981462729394
  0.7342889778206556  0.9905049102391261  0.2595332471011947
  0.7246562577493812  0.2431170356754805  0.0103834604344780
  0.2446166164166122  0.7443470833624495  0.9976932929676369
  0.2514488945644217  0.2460357488498932  0.5058840709959901
  0.2513910888401075  0.7519768544556870  0.5023519521881481
  0.2492605399528345  0.2480324018149566  0.2467826936007401
  0.2574157890183404  0.0013488155568236  0.9947618934543984
  0.0005755021281712  0.2523979502537105  0.9997427342806940
  0.7481458956717169  0.2403418801110046  0.2456972718987904
  0.7452850102282490  0.0005824293132260  0.0076948599421644
  0.5087032351208337  0.0000157067842897  0.2568148448667403
  0.9953929946434777  0.4997236209550224  0.2443378905181094
  0.4999006992191776  0.7607033958403757  0.0052058887576026
  0.9874209739355230  0.0036362577674339  0.7436710661032856
  0.7535124442387552  0.2451270499702779  0.7510650047073253
  0.7600513598531624  0.0032221418859090  0.4943218026252163
  0.5019790696884192  0.2457299337454043  0.4917589191155554
  0.5166344707832682  0.0017649510862889  0.7454326002215647
  0.9990769523557440  0.0007650887416840  0.2508135831201773
  0.4958756069150543  0.2438505840971330  0.0019765078136969
  0.2547215477311395  0.7492796270970571  0.2491599825177217
  0.2426137110726325  0.4991078029673405  0.9961288778904134
  0.0031965083545623  0.7431791444564160  0.0038891698113008
  0.7463227864993649  0.7475153203810875  0.2528866085168153
  0.7611531394353197  0.4929946710979135  0.0064398677162680
  0.4979723364026955  0.5005217930614406  0.2503627460674001
  0.2513780689404262  0.2462728551839755  0.7491718208509178
  0.2565919501307181  0.9995350999836444  0.5103243780434107
  0.0038316840093475  0.2489430228391048  0.5002976404008400
  0.2448657793565073  0.7578294409902411  0.7510046113334826
  0.2551951218713747  0.5013252310847710  0.4998317091506447
  0.9993913526545349  0.7564598244621893  0.4998690651303724
  0.0004485177753664  0.5007075325972247  0.7533847262406572
  0.7497331938720052  0.7566868183617780  0.7489783071654943
  0.7473872153072909  0.4952453420386474  0.5070881778363295
  0.4980168457043444  0.7656937785663068  0.4890129325223053
  0.5042848345838913  0.5024203577847041  0.7432609483374932
  0.5170713529737917  0.0082375068097453  0.9753175434351182
  0.9995413440042417  0.5118802578740705  0.9817636023464983
  0.4785656526855892  0.7368121455722723  0.2567727874882431
  0.2275695424091385  0.0125128965694611  0.7446122961955434
  0.4745074745151252  0.9938855880433185  0.5154904658933940
  0.7365701208612172  0.9752707535206823  0.7825832116277729
  0.0155440495511523  0.7642682770800742  0.2539151020748890
  0.7396635917334337  0.4959069711327186  0.2531814942705179
  0.0191536294496693  0.0030348318775804  0.4966065562051717
  0.5034113396531396  0.5168391525302873  0.4897499067193577
  0.7534729083057490  0.5133966825852677  0.7625344337720017
  0.7451436969139115  0.7379097287481271  0.4933306961794038
 
  0.00000000E+00  0.00000000E+00  0.00000000E+00
  0.00000000E+00  0.00000000E+00  0.00000000E+00
  0.00000000E+00  0.00000000E+00  0.00000000E+00
  0.00000000E+00  0.00000000E+00  0.00000000E+00
  0.00000000E+00  0.00000000E+00  0.00000000E+00
  0.00000000E+00  0.00000000E+00  0.00000000E+00
  0.00000000E+00  0.00000000E+00  0.00000000E+00
  0.00000000E+00  0.00000000E+00  0.00000000E+00
  0.00000000E+00  0.00000000E+00  0.00000000E+00
  0.00000000E+00  0.00000000E+00  0.00000000E+00
  0.00000000E+00  0.00000000E+00  0.00000000E+00
  0.00000000E+00  0.00000000E+00  0.00000000E+00
  0.00000000E+00  0.00000000E+00  0.00000000E+00
  0.00000000E+00  0.00000000E+00  0.00000000E+00
  0.00000000E+00  0.00000000E+00  0.00000000E+00
  0.00000000E+00  0.00000000E+00  0.00000000E+00
  0.00000000E+00  0.00000000E+00  0.00000000E+00
  0.00000000E+00  0.00000000E+00  0.00000000E+00
  0.00000000E+00  0.00000000E+00  0.00000000E+00
  0.00000000E+00  0.00000000E+00  0.00000000E+00
  0.00000000E+00  0.00000000E+00  0.00000000E+00
  0.00000000E+00  0.00000000E+00  0.00000000E+00
  0.00000000E+00  0.00000000E+00  0.00000000E+00
  0.00000000E+00  0.00000000E+00  0.00000000E+00
  0.00000000E+00  0.00000000E+00  0.00000000E+00
  0.00000000E+00  0.00000000E+00  0.00000000E+00
  0.00000000E+00  0.00000000E+00  0.00000000E+00
  0.00000000E+00  0.00000000E+00  0.00000000E+00
  0.00000000E+00  0.00000000E+00  0.00000000E+00
  0.00000000E+00  0.00000000E+00  0.00000000E+00
  0.00000000E+00  0.00000000E+00  0.00000000E+00
  0.00000000E+00  0.00000000E+00  0.00000000E+00
  0.00000000E+00  0.00000000E+00  0.00000000E+00
  0.00000000E+00  0.00000000E+00  0.00000000E+00
  0.00000000E+00  0.00000000E+00  0.00000000E+00
  0.00000000E+00  0.00000000E+00  0.00000000E+00
  0.00000000E+00  0.00000000E+00  0.00000000E+00
  0.00000000E+00  0.00000000E+00  0.00000000E+00
  0.00000000E+00  0.00000000E+00  0.00000000E+00
  0.00000000E+00  0.00000000E+00  0.00000000E+00
  0.00000000E+00  0.00000000E+00  0.00000000E+00
  0.00000000E+00  0.00000000E+00  0.00000000E+00
  0.00000000E+00  0.00000000E+00  0.00000000E+00
  0.00000000E+00  0.00000000E+00  0.00000000E+00
  0.00000000E+00  0.00000000E+00  0.00000000E+00
  0.00000000E+00  0.00000000E+00  0.00000000E+00
  0.00000000E+00  0.00000000E+00  0.00000000E+00
  0.00000000E+00  0.00000000E+00  0.00000000E+00
  0.00000000E+00  0.00000000E+00  0.00000000E+00
  0.00000000E+00  0.00000000E+00  0.00000000E+00
  0.00000000E+00  0.00000000E+00  0.00000000E+00
  0.00000000E+00  0.00000000E+00  0.00000000E+00
  0.00000000E+00  0.00000000E+00  0.00000000E+00
  0.00000000E+00  0.00000000E+00  0.00000000E+00
  0.00000000E+00  0.00000000E+00  0.00000000E+00
  0.00000000E+00  0.00000000E+00  0.00000000E+00
  0.00000000E+00  0.00000000E+00  0.00000000E+00
  0.00000000E+00  0.00000000E+00  0.00000000E+00
  0.00000000E+00  0.00000000E+00  0.00000000E+00
  0.00000000E+00  0.00000000E+00  0.00000000E+00
  0.00000000E+00  0.00000000E+00  0.00000000E+00
  0.00000000E+00  0.00000000E+00  0.00000000E+00
  0.00000000E+00  0.00000000E+00  0.00000000E+00
  0.00000000E+00  0.00000000E+00  0.00000000E+00
