24-TiHfVTaMo                            
   1.00000000000000     
     8.7721443916468047    0.0028402209766937    0.0164082095924138
     0.0028467053501964    8.8544258511726621   -0.0034685650952558
     0.0164439284270982   -0.0033959745123506    8.7863268478030019
   Ti   Ta   Hf   N    C    Mo   V 
     7     6     7    13    19     6     6
Direct
 -0.0007224654096245 -0.0136925103963576  0.0099035787096721
  0.2477609763297006 -0.0083789568826816  0.2522106566662504
  0.2517388713691107  0.5092092814087531  0.2488356095791586
  0.5024500437195836  0.4921414281034434 -0.0043211723039357
  0.4952175764207763  0.2467699350243998  0.7519613323109289
 -0.0040334045957995  0.5046188302733372  0.5006598131882333
  0.5043464666199110  0.7491298647631742  0.7418122929512160
 -0.0014134087247147  0.2453043549357593  0.2582791548850304
  0.7493327165638800  0.7445595482990545  0.0069646336134695
  0.0052147375196558  0.2494508102064071  0.7423574116906169
  0.7497476242740807  0.2619500704758967  0.5086210159542849
 -0.0050953549426904  0.7501964861753243  0.7461451587335655
  0.2557124510089523  0.4995933513855967  0.7486804614047404
  0.2468919744764266  0.2466157089127123 -0.0007487182990644
  0.5010506461665015  0.2534612215544848  0.2498441431374649
  0.7488532844107993 -0.0106772878184586  0.2636184348791317
  0.7543345452779634  0.2529876520825640 -0.0071722633442309
  0.2584633520953418  0.7548727836249598 -0.0004674302781739
  0.2526900052207260  0.2502754189592559  0.4988285245175251
  0.2470994889662474  0.7491008394971734  0.4992873226892283
  0.2487226069640534  0.2503956411583442  0.2485476192811362
  0.2520820641506861  0.0008767623260740  0.0042410937539589
  0.0010392300952972  0.2424040669871218  0.0000908022875971
  0.7513054164305397  0.2495332552902320  0.2535002180273633
  0.7569668647961056 -0.0027016528508287  0.0111990552742115
  0.4973050520837580 -0.0002142856163909  0.2447251929620982
  0.0002828244452796  0.4897698873594585  0.2512400724387802
  0.5065034718142976  0.7521076969489711 -0.0040045329822174
 -0.0085794488605031  0.0025547636584665  0.7470593462411477
  0.7485174015188721  0.2511945724724515  0.7476566243140605
  0.7446098741500489  0.0058593980709850  0.5071811945423411
  0.5049479065395456  0.2488945523501193  0.5028151224821545
  0.5018071862029886  0.0008193141733925  0.7377513595091483
  0.0027257969895385 -0.0024978209399691  0.2523569441580126
  0.5018450178894315  0.2569278099938344 -0.0049420331701550
  0.2479105147887688  0.7484872719918958  0.2493321953216790
  0.2517089720387116  0.5025759065961305  0.0027573424166390
 -0.0001332394252021  0.7519383268097475  0.0029600867518655
  0.7577583549427199  0.7376346783122324  0.2564497645543853
  0.7498680685871447  0.5033957514530935  0.0027008301216043
  0.5013241301253808  0.5037934148363924  0.2527859023309696
  0.2545500546342902  0.2546469494128749  0.7492666615889981
  0.2392735646654885 -0.0016211574039531  0.4950530956888368
 -0.0028339753280634  0.2477666317021162  0.5000680522397793
  0.2508848868630023  0.7504480370918840  0.7494239215477323
  0.2527343106147650  0.5005562037012510  0.4948921489977632
 -0.0098001875713097  0.7540006242311234  0.4964589773514914
 -0.0055393903339453  0.5006496763711547  0.7449962989026472
  0.7456164431585747  0.7455844862850904  0.7461972173790142
  0.7490378668262856  0.5033559487685929  0.5003857553328448
  0.5078351042027645  0.7458316499987013  0.5050768758442371
  0.5056897708138671  0.5017652046259576  0.7456782846408528
  0.5128553048685528  0.0157008800781831 -0.0157629638167313
 -0.0001460051656525  0.5131822490863780 -0.0130573987931246
  0.5045103803867328  0.7424006527726598  0.2647678755779619
  0.2483866395787825  0.0056600749775654  0.7432114951790566
  0.4771145655650874 -0.0149456841406869  0.4999668099151361
  0.7391088993344048 -0.0206132745779497  0.7681512753588844
  0.0018744183334796  0.7654038370177904  0.2560969069187200
  0.7336427632936073  0.5106448792098280  0.2616476496173546
  0.0160260497535143 -0.0036094873299157  0.4878625490759260
  0.5072162179857965  0.5150174278361015  0.5014631616896024
  0.7432340288311188  0.5200569184856134  0.7444189006446974
  0.7505707676546231  0.7268798018331414  0.4920329598164824
 
  0.00000000E+00  0.00000000E+00  0.00000000E+00
  0.00000000E+00  0.00000000E+00  0.00000000E+00
  0.00000000E+00  0.00000000E+00  0.00000000E+00
  0.00000000E+00  0.00000000E+00  0.00000000E+00
  0.00000000E+00  0.00000000E+00  0.00000000E+00
  0.00000000E+00  0.00000000E+00  0.00000000E+00
  0.00000000E+00  0.00000000E+00  0.00000000E+00
  0.00000000E+00  0.00000000E+00  0.00000000E+00
  0.00000000E+00  0.00000000E+00  0.00000000E+00
  0.00000000E+00  0.00000000E+00  0.00000000E+00
  0.00000000E+00  0.00000000E+00  0.00000000E+00
  0.00000000E+00  0.00000000E+00  0.00000000E+00
  0.00000000E+00  0.00000000E+00  0.00000000E+00
  0.00000000E+00  0.00000000E+00  0.00000000E+00
  0.00000000E+00  0.00000000E+00  0.00000000E+00
  0.00000000E+00  0.00000000E+00  0.00000000E+00
  0.00000000E+00  0.00000000E+00  0.00000000E+00
  0.00000000E+00  0.00000000E+00  0.00000000E+00
  0.00000000E+00  0.00000000E+00  0.00000000E+00
  0.00000000E+00  0.00000000E+00  0.00000000E+00
  0.00000000E+00  0.00000000E+00  0.00000000E+00
  0.00000000E+00  0.00000000E+00  0.00000000E+00
  0.00000000E+00  0.00000000E+00  0.00000000E+00
  0.00000000E+00  0.00000000E+00  0.00000000E+00
  0.00000000E+00  0.00000000E+00  0.00000000E+00
  0.00000000E+00  0.00000000E+00  0.00000000E+00
  0.00000000E+00  0.00000000E+00  0.00000000E+00
  0.00000000E+00  0.00000000E+00  0.00000000E+00
  0.00000000E+00  0.00000000E+00  0.00000000E+00
  0.00000000E+00  0.00000000E+00  0.00000000E+00
  0.00000000E+00  0.00000000E+00  0.00000000E+00
  0.00000000E+00  0.00000000E+00  0.00000000E+00
  0.00000000E+00  0.00000000E+00  0.00000000E+00
  0.00000000E+00  0.00000000E+00  0.00000000E+00
  0.00000000E+00  0.00000000E+00  0.00000000E+00
  0.00000000E+00  0.00000000E+00  0.00000000E+00
  0.00000000E+00  0.00000000E+00  0.00000000E+00
  0.00000000E+00  0.00000000E+00  0.00000000E+00
  0.00000000E+00  0.00000000E+00  0.00000000E+00
  0.00000000E+00  0.00000000E+00  0.00000000E+00
  0.00000000E+00  0.00000000E+00  0.00000000E+00
  0.00000000E+00  0.00000000E+00  0.00000000E+00
  0.00000000E+00  0.00000000E+00  0.00000000E+00
  0.00000000E+00  0.00000000E+00  0.00000000E+00
  0.00000000E+00  0.00000000E+00  0.00000000E+00
  0.00000000E+00  0.00000000E+00  0.00000000E+00
  0.00000000E+00  0.00000000E+00  0.00000000E+00
  0.00000000E+00  0.00000000E+00  0.00000000E+00
  0.00000000E+00  0.00000000E+00  0.00000000E+00
  0.00000000E+00  0.00000000E+00  0.00000000E+00
  0.00000000E+00  0.00000000E+00  0.00000000E+00
  0.00000000E+00  0.00000000E+00  0.00000000E+00
  0.00000000E+00  0.00000000E+00  0.00000000E+00
  0.00000000E+00  0.00000000E+00  0.00000000E+00
  0.00000000E+00  0.00000000E+00  0.00000000E+00
  0.00000000E+00  0.00000000E+00  0.00000000E+00
  0.00000000E+00  0.00000000E+00  0.00000000E+00
  0.00000000E+00  0.00000000E+00  0.00000000E+00
  0.00000000E+00  0.00000000E+00  0.00000000E+00
  0.00000000E+00  0.00000000E+00  0.00000000E+00
  0.00000000E+00  0.00000000E+00  0.00000000E+00
  0.00000000E+00  0.00000000E+00  0.00000000E+00
  0.00000000E+00  0.00000000E+00  0.00000000E+00
  0.00000000E+00  0.00000000E+00  0.00000000E+00
