93-HfNbTaCrMo                           
   1.00000000000000     
     8.8193044100894777   -0.0152695093494015   -0.0143319192972388
    -0.0097349050601816    8.8764770632623051   -0.0093350967657339
     0.0173790913219361   -0.0248074020941344    8.8796003962067598
   Nb   Ta   Hf   N    C    Cr   Mo
     7     6     7    13    19     6     6
Direct
  0.0018662396787693  0.9845033928552518  0.9987370969860436
  0.2481966024916956  0.9882324880449366  0.2586377032573139
  0.2520368854670558  0.5138168340422584  0.2459063441309179
  0.5048689950826040  0.4895967733723433  0.9937369153317209
  0.4928231508490830  0.2505806821288230  0.7495939544037740
  0.9974786587162188  0.4996104895496650  0.5067413571875595
  0.5067184317032871  0.7537365230382043  0.7365120788576390
 -0.0030937802714209  0.2426832263107576  0.2578290030615343
  0.7505678265699149  0.7470254849722664  0.0037484728442738
  0.0072489281418386  0.2437427425082439  0.7433192078951714
  0.7499045534899368  0.2482937739679179  0.5128659443353283
  0.0012793281633537  0.7536308285364015  0.7484869060124388
  0.2505408961514780  0.5041513549512326  0.7518336410494773
  0.2460089792659542  0.2453272435087866 -0.0009648916854984
  0.4997639131601617  0.2463372736851135  0.2507127372201309
  0.7363245818240051  0.9885450290920796  0.2622606510954921
  0.7526660170033725  0.2459438597407060  0.9905810919200295
  0.2653526210035903  0.7580259129420859  0.0001395803958654
  0.2532796640030793  0.2515262908550184  0.5013344588242902
  0.2493379406592138  0.7519689651804965  0.5003653779495529
  0.2475203542522181  0.2506468205639173  0.2506821116396495
  0.2528130083401463  0.0012033588576369  0.0028716488889006
 -0.0008744866330378  0.2419194098309794  0.0036818826221515
  0.7502278406342699  0.2423016353004932  0.2533222412768822
  0.7425176283174405  0.9933592502810845  0.0027364777876706
  0.4952659578218307  0.0011935408690494  0.2724778213024953
  0.0003913732406730  0.4850805537027432  0.2552366138490537
  0.5088352004395406  0.7573112585860522 -0.0117183119715636
  0.9853671609516800  0.0021452301923191  0.7465001734332304
  0.7531130176198060  0.2456054746516002  0.7483226131414148
  0.7557475657932594  0.0103818481685335  0.5016599625600195
  0.5049390838796853  0.2494910157450943  0.4991109364977200
  0.5291572155731807  0.0019176722992483  0.7373590232413409
 -0.0047805684356768  0.0006646344023993  0.2476905300926897
  0.5003139084619767  0.2436020496748883 -0.0023169495285849
  0.2632809601337380  0.7518038113795410  0.2506666799295474
  0.2427259615063202  0.5025899654382057  0.9978711188550561
  0.0028064507534961  0.7444328340487586  0.0012642961702320
  0.7430773912523858  0.7413099070344944  0.2481704457064359
  0.7640729395466961  0.5000250608427702  0.0061729598606280
  0.4938700203490862  0.5068243410908930  0.2443931352502997
  0.2501519549529526  0.2455297850909579  0.7505739312148337
  0.2548480508213703  0.0010071818411265  0.5154654001634548
 -0.0013103547543232  0.2511243916040997  0.5009240743788359
  0.2517916499836441  0.7592849791200229  0.7499045542379469
  0.2505041096765298  0.5018107107734057  0.4996377481850814
  0.9943074275159698  0.7536381475577627  0.4996773421859352
 -0.0001066066815582  0.5005802840157559  0.7532728119588599
  0.7532859910208000  0.7571485323642784  0.7447126220494273
  0.7478946050713524  0.4934947781110690  0.5027400566996687
  0.5058600640256093  0.7671119585491729  0.4915022011339747
  0.5035526998283165  0.5006427558901531  0.7433349844217350
  0.5161393795294970  0.0204696796607778  0.9516893919870550
  0.9927735337637202  0.5301883172235874  0.9698933340059807
  0.5089970396030428  0.7292458891386668  0.2812736891521195
  0.2207674778321239 -0.0010332876373146  0.7419047065071951
  0.4717429757291452  0.9947567158332770  0.5196719245765843
  0.7407470786984234  0.9710752182237670  0.7768908797949846
 -0.0004198436566255  0.7663923235693482  0.2534351926711862
  0.7275681790800639  0.5105215290907170  0.2496314345775612
  0.0146870285822807  0.0063227975724216  0.4921590543640689
  0.5016771801801332  0.5143216658580243  0.4893320004948799
  0.7521258395384365  0.5181744111998905  0.7586885789105787
  0.7488564987071697  0.7271021441057481  0.4951511806497501
 
  0.00000000E+00  0.00000000E+00  0.00000000E+00
  0.00000000E+00  0.00000000E+00  0.00000000E+00
  0.00000000E+00  0.00000000E+00  0.00000000E+00
  0.00000000E+00  0.00000000E+00  0.00000000E+00
  0.00000000E+00  0.00000000E+00  0.00000000E+00
  0.00000000E+00  0.00000000E+00  0.00000000E+00
  0.00000000E+00  0.00000000E+00  0.00000000E+00
  0.00000000E+00  0.00000000E+00  0.00000000E+00
  0.00000000E+00  0.00000000E+00  0.00000000E+00
  0.00000000E+00  0.00000000E+00  0.00000000E+00
  0.00000000E+00  0.00000000E+00  0.00000000E+00
  0.00000000E+00  0.00000000E+00  0.00000000E+00
  0.00000000E+00  0.00000000E+00  0.00000000E+00
  0.00000000E+00  0.00000000E+00  0.00000000E+00
  0.00000000E+00  0.00000000E+00  0.00000000E+00
  0.00000000E+00  0.00000000E+00  0.00000000E+00
  0.00000000E+00  0.00000000E+00  0.00000000E+00
  0.00000000E+00  0.00000000E+00  0.00000000E+00
  0.00000000E+00  0.00000000E+00  0.00000000E+00
  0.00000000E+00  0.00000000E+00  0.00000000E+00
  0.00000000E+00  0.00000000E+00  0.00000000E+00
  0.00000000E+00  0.00000000E+00  0.00000000E+00
  0.00000000E+00  0.00000000E+00  0.00000000E+00
  0.00000000E+00  0.00000000E+00  0.00000000E+00
  0.00000000E+00  0.00000000E+00  0.00000000E+00
  0.00000000E+00  0.00000000E+00  0.00000000E+00
  0.00000000E+00  0.00000000E+00  0.00000000E+00
  0.00000000E+00  0.00000000E+00  0.00000000E+00
  0.00000000E+00  0.00000000E+00  0.00000000E+00
  0.00000000E+00  0.00000000E+00  0.00000000E+00
  0.00000000E+00  0.00000000E+00  0.00000000E+00
  0.00000000E+00  0.00000000E+00  0.00000000E+00
  0.00000000E+00  0.00000000E+00  0.00000000E+00
  0.00000000E+00  0.00000000E+00  0.00000000E+00
  0.00000000E+00  0.00000000E+00  0.00000000E+00
  0.00000000E+00  0.00000000E+00  0.00000000E+00
  0.00000000E+00  0.00000000E+00  0.00000000E+00
  0.00000000E+00  0.00000000E+00  0.00000000E+00
  0.00000000E+00  0.00000000E+00  0.00000000E+00
  0.00000000E+00  0.00000000E+00  0.00000000E+00
  0.00000000E+00  0.00000000E+00  0.00000000E+00
  0.00000000E+00  0.00000000E+00  0.00000000E+00
  0.00000000E+00  0.00000000E+00  0.00000000E+00
  0.00000000E+00  0.00000000E+00  0.00000000E+00
  0.00000000E+00  0.00000000E+00  0.00000000E+00
  0.00000000E+00  0.00000000E+00  0.00000000E+00
  0.00000000E+00  0.00000000E+00  0.00000000E+00
  0.00000000E+00  0.00000000E+00  0.00000000E+00
  0.00000000E+00  0.00000000E+00  0.00000000E+00
  0.00000000E+00  0.00000000E+00  0.00000000E+00
  0.00000000E+00  0.00000000E+00  0.00000000E+00
  0.00000000E+00  0.00000000E+00  0.00000000E+00
  0.00000000E+00  0.00000000E+00  0.00000000E+00
  0.00000000E+00  0.00000000E+00  0.00000000E+00
  0.00000000E+00  0.00000000E+00  0.00000000E+00
  0.00000000E+00  0.00000000E+00  0.00000000E+00
  0.00000000E+00  0.00000000E+00  0.00000000E+00
  0.00000000E+00  0.00000000E+00  0.00000000E+00
  0.00000000E+00  0.00000000E+00  0.00000000E+00
  0.00000000E+00  0.00000000E+00  0.00000000E+00
  0.00000000E+00  0.00000000E+00  0.00000000E+00
  0.00000000E+00  0.00000000E+00  0.00000000E+00
  0.00000000E+00  0.00000000E+00  0.00000000E+00
  0.00000000E+00  0.00000000E+00  0.00000000E+00
