31-TiVNbTaMo                            
   1.00000000000000     
     8.7573592042090453   -0.0053163450418090    0.0317291873896572
    -0.0052672651680880    8.7058485003897594    0.0087428096821148
     0.0317277270943006    0.0086244123193430    8.7376722922999335
  Ti              Mo              V               N               C               Nb              Ta            
     7     6     7    13    19     6     6
Direct
  0.0075528177712043  0.0128339522498873  0.0060635838709703
  0.2469162172872025  0.0091160615982449  0.2526019855434192
  0.2530309371460812  0.4923708181907755  0.2502590527070013
  0.4974723506589707  0.5019755610448574  0.9997683225200223
  0.4957821029081850  0.2480096293500948  0.7547741237504573
  0.0063880314684577  0.4998492963889148  0.5016648071060711
  0.4958584642040506  0.7519159334611897  0.7477914074260888
  0.9867192681381157  0.2368744513273730  0.2595977033050046
  0.7709635215238849  0.7448405496157779  0.9960559594906286
  0.0239638330483125  0.2615710465040481  0.7443620616706762
  0.7656862162224466  0.2590535350882894  0.4828992047568289
  0.0003875002309988  0.7375721763360692  0.7533390813153795
  0.2530784574449478  0.4995162414092533  0.7539619478792896
  0.2694172095946825  0.2609766906839458  0.9949024950117377
  0.4926158591670481  0.2617920343741418  0.2324012329780226
  0.7659018591225147  0.0003714645969603  0.2277141518007690
  0.7210668472789385  0.2506217142732057  0.0093663044931160
  0.2361421919495240  0.7316316868972463  0.0030336994793468
  0.2410688206778395  0.2449050931913568  0.5170376427986660
  0.2563056092328732  0.7562634163701082  0.4941650622114500
  0.2492980930276833  0.2493408358091887  0.2493849346206892
  0.2489565677599034  0.0066980493845103  0.0048788597625091
  0.0027041739770887  0.2454720166094534  0.0023801875512461
  0.7355268377017885  0.2386794577311563  0.2419282828722721
  0.7581780008827330  0.0060505711119084  0.0076610258818714
  0.5002697805668990  0.0094319843193449  0.2503375099258964
  0.9997825226312542  0.4990167125487505  0.2538988430429645
  0.4936388921395079  0.7496982054768255  0.9942450553960387
  0.9981455151629861  0.0037436644724871  0.7546261754759798
  0.7459973164996230  0.2484906224675981  0.7503196172261964
  0.7523662376829587  0.9993475091278894  0.5020627396004760
  0.4975717724961329  0.2513968421001722  0.5015419154578722
  0.5013544016845172  0.0007747175359611  0.7491989128221500
  0.0006566869757297  0.9986334706936458  0.2491791724636783
  0.4958614163253149  0.2579303407159591  0.9982082170406692
  0.2492749622453448  0.7505245065146738  0.2475368093911797
  0.2530355031286845  0.4988307341314496  0.0046118893238980
  0.0097189291005096  0.7533754897603888  0.0004931666803187
  0.7515728144176007  0.7542414551037000  0.2477367548821704
  0.7458819210936951  0.4928868726929800  0.9996084155252536
  0.4957253971768744  0.4946461348429078  0.2469581779694139
  0.2579228196082912  0.2504484872297459  0.7558828731283779
  0.2475626491164436  0.0022862787475303  0.4946701055302265
  0.0070035372081765  0.2542512058192148  0.5030106912689226
  0.2504885349439818  0.7468801361160201  0.7521375050198396
  0.2480963515371092  0.4985219888527246  0.4988538924287356
  0.0045713559469340  0.7490390753845606  0.5022626675826509
  0.9992503006394295  0.4981309334326353  0.7448153445892269
  0.7448740581120546  0.7476299390835578  0.7505162673368864
  0.7524811321219416  0.4997022702864199  0.4982002472449523
  0.4949697802048221  0.7481177679015104  0.5037570110817702
  0.4987190884542926  0.4993300037115444  0.7512136422997465
  0.4969742142858727  0.0058364367542465  0.0056223507825266
  0.0012979132403439  0.4954515602927181  0.9960039793682770
  0.4939414688401741  0.7452617576494485  0.2501610194641881
  0.2527718428065037  0.9973730398812201  0.7451538006923178
  0.4912071686906219  0.9990089514911203  0.4932873910265237
  0.7482968687243570  0.9959941237852850  0.7672055024805046
  0.0059943263751841  0.7560401168156170  0.2511558071757832
  0.7452862050579203  0.4956542017287731  0.2484593235694212
  0.0045136665326393  0.0028851048102274  0.4990121868621603
  0.4922617476029244  0.4974850356355245  0.4994058550874027
  0.7436824525518538  0.4966375816177607  0.7506254317384191
  0.7459973316450744  0.7467631288699602  0.5000312832135068
 
  0.00000000E+00  0.00000000E+00  0.00000000E+00
  0.00000000E+00  0.00000000E+00  0.00000000E+00
  0.00000000E+00  0.00000000E+00  0.00000000E+00
  0.00000000E+00  0.00000000E+00  0.00000000E+00
  0.00000000E+00  0.00000000E+00  0.00000000E+00
  0.00000000E+00  0.00000000E+00  0.00000000E+00
  0.00000000E+00  0.00000000E+00  0.00000000E+00
  0.00000000E+00  0.00000000E+00  0.00000000E+00
  0.00000000E+00  0.00000000E+00  0.00000000E+00
  0.00000000E+00  0.00000000E+00  0.00000000E+00
  0.00000000E+00  0.00000000E+00  0.00000000E+00
  0.00000000E+00  0.00000000E+00  0.00000000E+00
  0.00000000E+00  0.00000000E+00  0.00000000E+00
  0.00000000E+00  0.00000000E+00  0.00000000E+00
  0.00000000E+00  0.00000000E+00  0.00000000E+00
  0.00000000E+00  0.00000000E+00  0.00000000E+00
  0.00000000E+00  0.00000000E+00  0.00000000E+00
  0.00000000E+00  0.00000000E+00  0.00000000E+00
  0.00000000E+00  0.00000000E+00  0.00000000E+00
  0.00000000E+00  0.00000000E+00  0.00000000E+00
  0.00000000E+00  0.00000000E+00  0.00000000E+00
  0.00000000E+00  0.00000000E+00  0.00000000E+00
  0.00000000E+00  0.00000000E+00  0.00000000E+00
  0.00000000E+00  0.00000000E+00  0.00000000E+00
  0.00000000E+00  0.00000000E+00  0.00000000E+00
  0.00000000E+00  0.00000000E+00  0.00000000E+00
  0.00000000E+00  0.00000000E+00  0.00000000E+00
  0.00000000E+00  0.00000000E+00  0.00000000E+00
  0.00000000E+00  0.00000000E+00  0.00000000E+00
  0.00000000E+00  0.00000000E+00  0.00000000E+00
  0.00000000E+00  0.00000000E+00  0.00000000E+00
  0.00000000E+00  0.00000000E+00  0.00000000E+00
  0.00000000E+00  0.00000000E+00  0.00000000E+00
  0.00000000E+00  0.00000000E+00  0.00000000E+00
  0.00000000E+00  0.00000000E+00  0.00000000E+00
  0.00000000E+00  0.00000000E+00  0.00000000E+00
  0.00000000E+00  0.00000000E+00  0.00000000E+00
  0.00000000E+00  0.00000000E+00  0.00000000E+00
  0.00000000E+00  0.00000000E+00  0.00000000E+00
  0.00000000E+00  0.00000000E+00  0.00000000E+00
  0.00000000E+00  0.00000000E+00  0.00000000E+00
  0.00000000E+00  0.00000000E+00  0.00000000E+00
  0.00000000E+00  0.00000000E+00  0.00000000E+00
  0.00000000E+00  0.00000000E+00  0.00000000E+00
  0.00000000E+00  0.00000000E+00  0.00000000E+00
  0.00000000E+00  0.00000000E+00  0.00000000E+00
  0.00000000E+00  0.00000000E+00  0.00000000E+00
  0.00000000E+00  0.00000000E+00  0.00000000E+00
  0.00000000E+00  0.00000000E+00  0.00000000E+00
  0.00000000E+00  0.00000000E+00  0.00000000E+00
  0.00000000E+00  0.00000000E+00  0.00000000E+00
  0.00000000E+00  0.00000000E+00  0.00000000E+00
  0.00000000E+00  0.00000000E+00  0.00000000E+00
  0.00000000E+00  0.00000000E+00  0.00000000E+00
  0.00000000E+00  0.00000000E+00  0.00000000E+00
  0.00000000E+00  0.00000000E+00  0.00000000E+00
  0.00000000E+00  0.00000000E+00  0.00000000E+00
  0.00000000E+00  0.00000000E+00  0.00000000E+00
  0.00000000E+00  0.00000000E+00  0.00000000E+00
  0.00000000E+00  0.00000000E+00  0.00000000E+00
  0.00000000E+00  0.00000000E+00  0.00000000E+00
  0.00000000E+00  0.00000000E+00  0.00000000E+00
  0.00000000E+00  0.00000000E+00  0.00000000E+00
  0.00000000E+00  0.00000000E+00  0.00000000E+00
