Ta
1.0
        3.3025999069         0.0000000000         0.0000000000
        0.0000000000         3.3025999069         0.0000000000
        0.0000000000         0.0000000000         3.3025999069
   Ta
    2
Direct
     0.000000000         0.000000000         0.000000000
     0.500000000         0.500000000         0.500000000
