23-TiHfVNbW                             
   1.00000000000000     
     8.7857112333937515   -0.0006518117267064   -0.0007331090408422
    -0.0005986424649157    8.8873511865506032   -0.0055458608742722
    -0.0007349558114440   -0.0054229863995898    8.7588855884855956
   Ti   W    Hf   N    C    Nb   V 
     7     6     7    13    19     6     6
Direct
 -0.0086707384586784 -0.0085435206138318  0.0020844385944476
  0.2463345220917980 -0.0057006683909713  0.2548992139160679
  0.2597668431679168  0.5082532236269086  0.2503895964981900
  0.4985401119531993  0.4955506461465332 -0.0011178382345363
  0.4923316331782339  0.2500046553287674  0.7516660763209415
  0.0002488950315572  0.5016835206129822  0.4853675635823719
  0.5043403929559119  0.7481712157283313  0.7453648203232502
 -0.0014787693564500  0.2302101454666552  0.2647192436667115
  0.7596620672420118  0.7375459940814489  0.0065522769444730
  0.0099826277250698  0.2776601719328853  0.7393715419331364
  0.7567392398793977  0.2774093393147818  0.5069424576114867
 -0.0096883306934304  0.7303246623715741  0.7445781868260034
  0.2639454692923012  0.4999973451796972  0.7485472856630672
  0.2448038676856083  0.2475364543834089  0.0017046480792916
  0.5034815679296892  0.2547052572937106  0.2515598729734596
  0.7520956077916022 -0.0046323924312530  0.2601528434435833
  0.7536628115462278  0.2580051888952102 -0.0096987623350566
  0.2483298153934780  0.7520973588947761 -0.0001715024585209
  0.2522082420215949  0.2511835986951164  0.4999725844694452
  0.2441786021847434  0.7484860159483927  0.5006197245159582
  0.2488986126329093  0.2467880363551171  0.2511415015703248
  0.2501141548870048 -0.0001175313456284  0.0052136595886072
 -0.0008167212846446  0.2424412234872781  0.0002612826155120
  0.7543952314689045  0.2529059505296516  0.2546226258878242
  0.7538707694105486  0.0000856374984222  0.0024136948801005
  0.4985172299850200  0.0009725139296625  0.2498197141603909
  0.0002243446351171  0.4852564016467421  0.2504949192832545
  0.5027471014800600  0.7512816463547536 -0.0028846999341067
 -0.0032139584705116  0.0025661300310926  0.7493289483397851
  0.7512206019897144  0.2506554795477856  0.7436021125363393
  0.7512852433252813  0.0087836562433966  0.5053711629436334
  0.5085135010885806  0.2499503586150210  0.5047364011152166
  0.4995187617546606 -0.0008665565519323  0.7481883103968524
  0.0038344055815044 -0.0049181518941942  0.2525258674526614
  0.5010603336162991  0.2527085836183324 -0.0038162435774435
  0.2472176473374265  0.7503410903323811  0.2500028145653174
  0.2508091309985779  0.5000897949212297  0.0021182541394689
 -0.0027870534947121  0.7522850659770212  0.0034899119192017
  0.7568677288029025  0.7413213793869333  0.2536588216099963
  0.7455697105413158  0.5045806859726445 -0.0007955243339779
  0.5020160338635452  0.5027732178904329  0.2517475727144426
  0.2513967997376035  0.2522740756587392  0.7502417046307898
  0.2459452228871696 -0.0008130936775289  0.4958986944632333
 -0.0024559919080053  0.2481879811111272  0.5030868306981621
  0.2476532501768632  0.7483665620535014  0.7501043445173029
  0.2540470234141756  0.5002183968209863  0.4973915598529915
 -0.0101008073784084  0.7525265129457038  0.4971233536381584
 -0.0051871474440833  0.5026357024978906  0.7443711414987791
  0.7449646811331724  0.7421913687356377  0.7468598927560690
  0.7500505422632200  0.5046136011568728  0.4979929743236302
  0.5061642574321246  0.7446358848770295  0.5033847833974807
  0.5018596146637789  0.5007163754483474  0.7467142535545697
  0.5088263800182761  0.0097797896562762 -0.0083044164360562
 -0.0023836015304418  0.5066451332454235  0.0094569012968580
  0.5035216288110534  0.7446366074209557  0.2546258485664115
  0.2405647254062760 -0.0013060774044427  0.7444650411167523
  0.4912872072324884 -0.0133785286888521  0.5056678938196769
  0.7532971371532751 -0.0192309846342679  0.7489708957541420
 -0.0011318908506086  0.7741818560146695  0.2555760891913679
  0.7332149454172373  0.5108536180587955  0.2470062657297311
  0.0134110649413060 -0.0020201520004099  0.4933169578839287
  0.5006841438507444  0.5160083125704408  0.4990703007112623
  0.7275624503514743  0.5154180302625839  0.7489757154172922
  0.7561317475100777  0.7230268748593074  0.4932582654103492
 
  0.00000000E+00  0.00000000E+00  0.00000000E+00
  0.00000000E+00  0.00000000E+00  0.00000000E+00
  0.00000000E+00  0.00000000E+00  0.00000000E+00
  0.00000000E+00  0.00000000E+00  0.00000000E+00
  0.00000000E+00  0.00000000E+00  0.00000000E+00
  0.00000000E+00  0.00000000E+00  0.00000000E+00
  0.00000000E+00  0.00000000E+00  0.00000000E+00
  0.00000000E+00  0.00000000E+00  0.00000000E+00
  0.00000000E+00  0.00000000E+00  0.00000000E+00
  0.00000000E+00  0.00000000E+00  0.00000000E+00
  0.00000000E+00  0.00000000E+00  0.00000000E+00
  0.00000000E+00  0.00000000E+00  0.00000000E+00
  0.00000000E+00  0.00000000E+00  0.00000000E+00
  0.00000000E+00  0.00000000E+00  0.00000000E+00
  0.00000000E+00  0.00000000E+00  0.00000000E+00
  0.00000000E+00  0.00000000E+00  0.00000000E+00
  0.00000000E+00  0.00000000E+00  0.00000000E+00
  0.00000000E+00  0.00000000E+00  0.00000000E+00
  0.00000000E+00  0.00000000E+00  0.00000000E+00
  0.00000000E+00  0.00000000E+00  0.00000000E+00
  0.00000000E+00  0.00000000E+00  0.00000000E+00
  0.00000000E+00  0.00000000E+00  0.00000000E+00
  0.00000000E+00  0.00000000E+00  0.00000000E+00
  0.00000000E+00  0.00000000E+00  0.00000000E+00
  0.00000000E+00  0.00000000E+00  0.00000000E+00
  0.00000000E+00  0.00000000E+00  0.00000000E+00
  0.00000000E+00  0.00000000E+00  0.00000000E+00
  0.00000000E+00  0.00000000E+00  0.00000000E+00
  0.00000000E+00  0.00000000E+00  0.00000000E+00
  0.00000000E+00  0.00000000E+00  0.00000000E+00
  0.00000000E+00  0.00000000E+00  0.00000000E+00
  0.00000000E+00  0.00000000E+00  0.00000000E+00
  0.00000000E+00  0.00000000E+00  0.00000000E+00
  0.00000000E+00  0.00000000E+00  0.00000000E+00
  0.00000000E+00  0.00000000E+00  0.00000000E+00
  0.00000000E+00  0.00000000E+00  0.00000000E+00
  0.00000000E+00  0.00000000E+00  0.00000000E+00
  0.00000000E+00  0.00000000E+00  0.00000000E+00
  0.00000000E+00  0.00000000E+00  0.00000000E+00
  0.00000000E+00  0.00000000E+00  0.00000000E+00
  0.00000000E+00  0.00000000E+00  0.00000000E+00
  0.00000000E+00  0.00000000E+00  0.00000000E+00
  0.00000000E+00  0.00000000E+00  0.00000000E+00
  0.00000000E+00  0.00000000E+00  0.00000000E+00
  0.00000000E+00  0.00000000E+00  0.00000000E+00
  0.00000000E+00  0.00000000E+00  0.00000000E+00
  0.00000000E+00  0.00000000E+00  0.00000000E+00
  0.00000000E+00  0.00000000E+00  0.00000000E+00
  0.00000000E+00  0.00000000E+00  0.00000000E+00
  0.00000000E+00  0.00000000E+00  0.00000000E+00
  0.00000000E+00  0.00000000E+00  0.00000000E+00
  0.00000000E+00  0.00000000E+00  0.00000000E+00
  0.00000000E+00  0.00000000E+00  0.00000000E+00
  0.00000000E+00  0.00000000E+00  0.00000000E+00
  0.00000000E+00  0.00000000E+00  0.00000000E+00
  0.00000000E+00  0.00000000E+00  0.00000000E+00
  0.00000000E+00  0.00000000E+00  0.00000000E+00
  0.00000000E+00  0.00000000E+00  0.00000000E+00
  0.00000000E+00  0.00000000E+00  0.00000000E+00
  0.00000000E+00  0.00000000E+00  0.00000000E+00
  0.00000000E+00  0.00000000E+00  0.00000000E+00
  0.00000000E+00  0.00000000E+00  0.00000000E+00
  0.00000000E+00  0.00000000E+00  0.00000000E+00
  0.00000000E+00  0.00000000E+00  0.00000000E+00
