Ti                                      
   1.00000000000000     
     2.9673455456678872    0.0000000000000000   -0.0000000000000000
    -1.4836727728339436    2.5697966243297201   -0.0000000000000000
     0.0000000000000000   -0.0000000000000000    4.5492701372141440
  Ti            
     2
Direct
  0.3333333429999996  0.6666666870000029  0.2500000000000000
  0.6666666570000004  0.3333333129999971  0.7500000000000000
 
  0.00000000E+00  0.00000000E+00  0.00000000E+00
  0.00000000E+00  0.00000000E+00  0.00000000E+00
