Ti
1.0
        2.9505999088         0.0000000000         0.0000000000
       -1.4752999544         2.5552944774         0.0000000000
        0.0000000000         0.0000000000         4.6788001060
   Ti
    2
Direct
     0.333333343         0.666666687         0.250000000
     0.666666657         0.333333313         0.750000000
