81-ZrHfTaCrMo                           
   1.00000000000000     
     8.9348073684191469    0.0161551175537789   -0.0151347138423141
     0.0222382980476088    8.9592319431401215   -0.0060678427833777
     0.0169600714086297   -0.0215318457864788    8.9559153208177147
   Hf   Ta   Zr   N    C    Cr   Mo
     7     6     7    13    19     6     6
Direct
  0.9966728818939021  0.9923665333738065  0.9961215392796273
  0.2614394370238340  0.9959637746447593  0.2533826626918823
  0.2400797367668464  0.5022790861413979  0.2439633243343382
  0.5031447426550459  0.5018840391103405  0.9972675807173017
  0.5050366213144104  0.2460372617194963  0.7444860097121359
  0.9954236421338594  0.5032150620766439  0.4988676072570961
  0.5016566051961353  0.7560015579604795  0.7424607589989073
  0.9957481571796600  0.2369958134606952  0.2580029128664240
  0.7529558657879498  0.7449782979893529  0.0081289696020198
  0.0025672055395537  0.2495886037338675  0.7435767910495388
  0.7516269138150810  0.2511672147907290  0.5075481685331310
  0.9988765563836910  0.7467869833961780  0.7506657732937874
  0.2510744130819693  0.4973162088596672  0.7491676433009795
  0.2487576635151570  0.2428618770897274  0.9939612267039692
  0.5040714471650614  0.2521840639858600  0.2517548886815875
  0.7395365007354282  0.9888817522447042  0.2669285685241281
  0.7530233070716593  0.2506308599740897  0.9945784259299771
  0.2549750084796294  0.7560768695409379  0.9988138914892299
  0.2535928260247184  0.2504164541816972  0.5018101439409800
  0.2488370607744533  0.7510512045778712  0.5001620769838864
  0.2461742375291866  0.2495535511775146  0.2478398900974534
  0.2464658402324811  0.0000604245899790  0.0050280072902803
  0.0003343340920518  0.2453283963599129 -0.0009492772247916
  0.7552344466871487  0.2475077373536564  0.2565936203353363
  0.7465863006596815  0.9925800789221058 -0.0012437460935251
  0.4985705122665711 -0.0009748288540588  0.2709608644186484
  0.9954027384797608  0.4862096626909861  0.2510689159905440
  0.5098599513258838  0.7603918812245238 -0.0096172949541149
  0.9853502439938701  0.0041841738743709  0.7464766655531234
  0.7540241488028733  0.2523682276409936  0.7451102014518256
  0.7583942183544689  0.0133391844725109  0.5068102612074807
  0.5099552113781508  0.2486519059386789  0.5015140176434952
  0.5308927759636927 -0.0002775232046791  0.7392080802792075
  0.0007712039083085  0.0018091514214016  0.2511038262700528
  0.5032478470945617  0.2396023091822466 -0.0047126858816702
  0.2582364550581524  0.7497515259187473  0.2490220711132510
  0.2429926436062653  0.5018560803409233  0.9934679724077289
  0.9971797396822154  0.7422889149572632  0.0022374343505206
  0.7440468525476892  0.7394259301301479  0.2498244761434150
  0.7625759905296605  0.5036118359097755  0.0085960759434044
  0.4924995393650126  0.5070616925370319  0.2475248951321498
  0.2491564859816262  0.2468849435619633  0.7477386289353157
  0.2562900369812915  0.0004195165597727  0.5142991537728551
  0.9974275156478472  0.2500882979466100  0.5012512220619892
  0.2443545294129786  0.7570019166693372  0.7493040058465399
  0.2509906156625211  0.5015741454927812  0.4991210032333970
  0.9902415925030281  0.7566955873464366  0.5022601925916459
  0.0016685652039729  0.5007247528332657  0.7525617739159078
  0.7519770047036940  0.7553097392185911  0.7477138135549121
  0.7465171396744547  0.4958886687280585  0.5063472480417500
  0.5061264703575161  0.7649969620469418  0.4893405042650021
  0.5024675787442150  0.5021931997172241  0.7440824971660013
  0.5269942135036412  0.0060722034158676  0.9576111273399084
  0.9904425936719414  0.5190711127011058  0.9750222183329248
  0.5036579828596883  0.7289575700969132  0.2731239420179907
  0.2169520925623683  0.0102083779567561  0.7316107978982161
  0.4739027726912081  0.9927635573856455  0.5216198826099697
  0.7422029615542175  0.9665535201696969  0.7750207122077892
 -0.0005264233879657  0.7721896878737662  0.2582452011143041
  0.7283099170592962  0.5086210496213128  0.2569745798832261
  0.0152892850425220  0.0021924209541826  0.4990657350255117
  0.5076639851919097  0.5144817669576948  0.4869606871272593
  0.7566395958669633  0.5188014878082832  0.7621995758768888
  0.7433620404153147  0.7272954345014636  0.4910123978159696
 
  0.00000000E+00  0.00000000E+00  0.00000000E+00
  0.00000000E+00  0.00000000E+00  0.00000000E+00
  0.00000000E+00  0.00000000E+00  0.00000000E+00
  0.00000000E+00  0.00000000E+00  0.00000000E+00
  0.00000000E+00  0.00000000E+00  0.00000000E+00
  0.00000000E+00  0.00000000E+00  0.00000000E+00
  0.00000000E+00  0.00000000E+00  0.00000000E+00
  0.00000000E+00  0.00000000E+00  0.00000000E+00
  0.00000000E+00  0.00000000E+00  0.00000000E+00
  0.00000000E+00  0.00000000E+00  0.00000000E+00
  0.00000000E+00  0.00000000E+00  0.00000000E+00
  0.00000000E+00  0.00000000E+00  0.00000000E+00
  0.00000000E+00  0.00000000E+00  0.00000000E+00
  0.00000000E+00  0.00000000E+00  0.00000000E+00
  0.00000000E+00  0.00000000E+00  0.00000000E+00
  0.00000000E+00  0.00000000E+00  0.00000000E+00
  0.00000000E+00  0.00000000E+00  0.00000000E+00
  0.00000000E+00  0.00000000E+00  0.00000000E+00
  0.00000000E+00  0.00000000E+00  0.00000000E+00
  0.00000000E+00  0.00000000E+00  0.00000000E+00
  0.00000000E+00  0.00000000E+00  0.00000000E+00
  0.00000000E+00  0.00000000E+00  0.00000000E+00
  0.00000000E+00  0.00000000E+00  0.00000000E+00
  0.00000000E+00  0.00000000E+00  0.00000000E+00
  0.00000000E+00  0.00000000E+00  0.00000000E+00
  0.00000000E+00  0.00000000E+00  0.00000000E+00
  0.00000000E+00  0.00000000E+00  0.00000000E+00
  0.00000000E+00  0.00000000E+00  0.00000000E+00
  0.00000000E+00  0.00000000E+00  0.00000000E+00
  0.00000000E+00  0.00000000E+00  0.00000000E+00
  0.00000000E+00  0.00000000E+00  0.00000000E+00
  0.00000000E+00  0.00000000E+00  0.00000000E+00
  0.00000000E+00  0.00000000E+00  0.00000000E+00
  0.00000000E+00  0.00000000E+00  0.00000000E+00
  0.00000000E+00  0.00000000E+00  0.00000000E+00
  0.00000000E+00  0.00000000E+00  0.00000000E+00
  0.00000000E+00  0.00000000E+00  0.00000000E+00
  0.00000000E+00  0.00000000E+00  0.00000000E+00
  0.00000000E+00  0.00000000E+00  0.00000000E+00
  0.00000000E+00  0.00000000E+00  0.00000000E+00
  0.00000000E+00  0.00000000E+00  0.00000000E+00
  0.00000000E+00  0.00000000E+00  0.00000000E+00
  0.00000000E+00  0.00000000E+00  0.00000000E+00
  0.00000000E+00  0.00000000E+00  0.00000000E+00
  0.00000000E+00  0.00000000E+00  0.00000000E+00
  0.00000000E+00  0.00000000E+00  0.00000000E+00
  0.00000000E+00  0.00000000E+00  0.00000000E+00
  0.00000000E+00  0.00000000E+00  0.00000000E+00
  0.00000000E+00  0.00000000E+00  0.00000000E+00
  0.00000000E+00  0.00000000E+00  0.00000000E+00
  0.00000000E+00  0.00000000E+00  0.00000000E+00
  0.00000000E+00  0.00000000E+00  0.00000000E+00
  0.00000000E+00  0.00000000E+00  0.00000000E+00
  0.00000000E+00  0.00000000E+00  0.00000000E+00
  0.00000000E+00  0.00000000E+00  0.00000000E+00
  0.00000000E+00  0.00000000E+00  0.00000000E+00
  0.00000000E+00  0.00000000E+00  0.00000000E+00
  0.00000000E+00  0.00000000E+00  0.00000000E+00
  0.00000000E+00  0.00000000E+00  0.00000000E+00
  0.00000000E+00  0.00000000E+00  0.00000000E+00
  0.00000000E+00  0.00000000E+00  0.00000000E+00
  0.00000000E+00  0.00000000E+00  0.00000000E+00
  0.00000000E+00  0.00000000E+00  0.00000000E+00
  0.00000000E+00  0.00000000E+00  0.00000000E+00
