30-TiHfTaMoW                            
   1.00000000000000     
     8.8565028305023148    0.0274872567699751    0.0403917211962195
     0.0276914520091909    8.8753828119782945   -0.0133033959683664
     0.0403477594695420   -0.0131910056094414    8.8694084133769966
   Ti   Mo   Hf   N    C    W    Ta
     7     6     7    13    19     6     6
Direct
  0.0081412565869580 -0.0070920226556707 -0.0044432123990728
  0.2518372388029398 -0.0055277910691383  0.2596411811752978
  0.2509363846645624  0.5073597818571830  0.2472983481407658
  0.4971172562017440  0.4879683028531808 -0.0040392689023575
  0.4907685649931261  0.2439659896493019  0.7525689215529842
  0.0014115770709679  0.4977739515785339  0.5110293056338495
  0.5020902389438003  0.7494301705963620  0.7464512718199002
 -0.0090875470974864  0.2335666668524058  0.2681390439279305
  0.7695223248606323  0.7465217084141142 -0.0080158580328263
  0.0252248910331031  0.2417378157176431  0.7441302587320958
  0.7635508793405387  0.2655950341194114  0.4850366564756414
 -0.0033015652982959  0.7366750164043034  0.7628996964934546
  0.2533688662826695  0.5078255366706643  0.7555144466348428
  0.2442801054602358  0.2492509520712028 -0.0007955290540268
  0.4982771826394333  0.2513841657525346  0.2459663074267902
  0.7491659038244224 -0.0003392548652771  0.2521860799189725
  0.7568430777770520  0.2517683859283315 -0.0124976944631405
  0.2627971624083656  0.7553077099774217  0.0009162588858263
  0.2509772959581900  0.2525696884547266  0.5026236134426232
  0.2465322719964791  0.7481211320467176  0.5054942491214433
  0.2489377210645521  0.2469278905867022  0.2519483782691893
  0.2575832287973977  0.0031744683956041  0.0026556196099365
  0.0003500680138998  0.2530251455824377  0.0076174123824938
  0.7481616410040304  0.2498723870952901  0.2408843449589505
  0.7587077187312816 -0.0002176387792031  0.0030689030180667
  0.4958659635137689 -0.0026484608868225  0.2328730337881381
  0.0000669256387228  0.4996754206659650  0.2464164106322581
  0.5076892333751255  0.7567497222138151  0.0005219470851420
 -0.0256709551056347  0.0032560147664155  0.7527444076696277
  0.7457183196379215  0.2447812117642466  0.7420826881484274
  0.7439416429583101 -0.0006951859179302  0.5086427773382266
  0.5028567739953108  0.2455650284222282  0.4989802486422855
  0.4873679495533375  0.0019439950864892  0.7344722078775020
  0.0040348698248289 -0.0020252398230342  0.2500393075900215
  0.5015655222238535  0.2540712007336017 -0.0058965313590729
  0.2524320667709855  0.7510715892000378  0.2523022146606828
  0.2495142707131870  0.5032269972900375  0.0059299653460402
  0.0096055036749608  0.7566727046055242  0.0044677597822111
  0.7493292638433272  0.7468705582764049  0.2458174107728661
  0.7514472379191648  0.5044369697368847 -0.0014712634609326
  0.5003000960306019  0.5038399269913139  0.2486765221947272
  0.2603026978864150  0.2507996640353636  0.7506409649858016
  0.2511633400209896 -0.0004080244338279  0.5026411700541417
 -0.0030576015791372  0.2542432771327096  0.5092365957829420
  0.2493571350900134  0.7587335592095817  0.7535787133192452
  0.2476159787789662  0.4998568860275187  0.4960896932727765
 -0.0056694929911478  0.7491472685112077  0.5047713538126631
 -0.0016215949114367  0.4922471845783193  0.7513529232514840
  0.7441559993617193  0.7491370445269269  0.7486664221973633
  0.7530470704914728  0.5011198921280198  0.4985409804833685
  0.4979139056711602  0.7469960014226057  0.5086549326991674
  0.4993021528349203  0.5007672585278506  0.7507844427546054
  0.5123607238881264  0.0158673467515470 -0.0186723865762166
  0.0031140953459301  0.5188320444295854 -0.0116092899938328
  0.5012224582897430  0.7483845736154565  0.2654183942458140
  0.2274001901592250  0.0012821836699178  0.7480441011127449
  0.4902140415418587 -0.0172819259538987  0.4845768240328578
  0.7272576644361455 -0.0184465639279133  0.7694233371236189
  0.0028126978865573  0.7589583267301035  0.2508921192633629
  0.7514713450174283  0.4995151881555143  0.2495726913311922
  0.0035342522546018  0.0044687547965187  0.5064015347452010
  0.4962666124656044  0.5053456369716505  0.5017320861786504
  0.7428482216698576  0.5062804346699735  0.7493990120900224
  0.7487303497626705  0.7407170140653641  0.4969862143552999
 
  0.00000000E+00  0.00000000E+00  0.00000000E+00
  0.00000000E+00  0.00000000E+00  0.00000000E+00
  0.00000000E+00  0.00000000E+00  0.00000000E+00
  0.00000000E+00  0.00000000E+00  0.00000000E+00
  0.00000000E+00  0.00000000E+00  0.00000000E+00
  0.00000000E+00  0.00000000E+00  0.00000000E+00
  0.00000000E+00  0.00000000E+00  0.00000000E+00
  0.00000000E+00  0.00000000E+00  0.00000000E+00
  0.00000000E+00  0.00000000E+00  0.00000000E+00
  0.00000000E+00  0.00000000E+00  0.00000000E+00
  0.00000000E+00  0.00000000E+00  0.00000000E+00
  0.00000000E+00  0.00000000E+00  0.00000000E+00
  0.00000000E+00  0.00000000E+00  0.00000000E+00
  0.00000000E+00  0.00000000E+00  0.00000000E+00
  0.00000000E+00  0.00000000E+00  0.00000000E+00
  0.00000000E+00  0.00000000E+00  0.00000000E+00
  0.00000000E+00  0.00000000E+00  0.00000000E+00
  0.00000000E+00  0.00000000E+00  0.00000000E+00
  0.00000000E+00  0.00000000E+00  0.00000000E+00
  0.00000000E+00  0.00000000E+00  0.00000000E+00
  0.00000000E+00  0.00000000E+00  0.00000000E+00
  0.00000000E+00  0.00000000E+00  0.00000000E+00
  0.00000000E+00  0.00000000E+00  0.00000000E+00
  0.00000000E+00  0.00000000E+00  0.00000000E+00
  0.00000000E+00  0.00000000E+00  0.00000000E+00
  0.00000000E+00  0.00000000E+00  0.00000000E+00
  0.00000000E+00  0.00000000E+00  0.00000000E+00
  0.00000000E+00  0.00000000E+00  0.00000000E+00
  0.00000000E+00  0.00000000E+00  0.00000000E+00
  0.00000000E+00  0.00000000E+00  0.00000000E+00
  0.00000000E+00  0.00000000E+00  0.00000000E+00
  0.00000000E+00  0.00000000E+00  0.00000000E+00
  0.00000000E+00  0.00000000E+00  0.00000000E+00
  0.00000000E+00  0.00000000E+00  0.00000000E+00
  0.00000000E+00  0.00000000E+00  0.00000000E+00
  0.00000000E+00  0.00000000E+00  0.00000000E+00
  0.00000000E+00  0.00000000E+00  0.00000000E+00
  0.00000000E+00  0.00000000E+00  0.00000000E+00
  0.00000000E+00  0.00000000E+00  0.00000000E+00
  0.00000000E+00  0.00000000E+00  0.00000000E+00
  0.00000000E+00  0.00000000E+00  0.00000000E+00
  0.00000000E+00  0.00000000E+00  0.00000000E+00
  0.00000000E+00  0.00000000E+00  0.00000000E+00
  0.00000000E+00  0.00000000E+00  0.00000000E+00
  0.00000000E+00  0.00000000E+00  0.00000000E+00
  0.00000000E+00  0.00000000E+00  0.00000000E+00
  0.00000000E+00  0.00000000E+00  0.00000000E+00
  0.00000000E+00  0.00000000E+00  0.00000000E+00
  0.00000000E+00  0.00000000E+00  0.00000000E+00
  0.00000000E+00  0.00000000E+00  0.00000000E+00
  0.00000000E+00  0.00000000E+00  0.00000000E+00
  0.00000000E+00  0.00000000E+00  0.00000000E+00
  0.00000000E+00  0.00000000E+00  0.00000000E+00
  0.00000000E+00  0.00000000E+00  0.00000000E+00
  0.00000000E+00  0.00000000E+00  0.00000000E+00
  0.00000000E+00  0.00000000E+00  0.00000000E+00
  0.00000000E+00  0.00000000E+00  0.00000000E+00
  0.00000000E+00  0.00000000E+00  0.00000000E+00
  0.00000000E+00  0.00000000E+00  0.00000000E+00
  0.00000000E+00  0.00000000E+00  0.00000000E+00
  0.00000000E+00  0.00000000E+00  0.00000000E+00
  0.00000000E+00  0.00000000E+00  0.00000000E+00
  0.00000000E+00  0.00000000E+00  0.00000000E+00
  0.00000000E+00  0.00000000E+00  0.00000000E+00
