58-TiZrHfCrW                            
   1.00000000000000     
     8.8755642792822655    0.0474730400440171   -0.0208979680556950
     0.0543184324126031    8.8270873822880844   -0.0000663977007036
     0.0112105554934756   -0.0147910424575975    8.9685036035712518
  Zr              Hf              Ti              N               C               Cr              W             
     7     6     7    13    19     6     6
Direct
  0.0020185742630948  0.9860551250823699  0.0008469991831140
  0.2680223131036834  0.9967143483248265  0.2444812972643406
  0.2543041475278233  0.4984679404937687  0.2480450361081045
  0.4986184133474623  0.4927362313079206  0.0018366270059845
  0.4993122603040578  0.2447469594761690  0.7531214550612393
  0.9968597125547158  0.4976437985495058  0.5080406556954438
  0.4951059850327312  0.7586694312960808  0.7453381223694838
  0.9953890142514292  0.2443475619638103  0.2501455322727916
  0.7455160652594066  0.7511522321896279  0.0101967946733200
  0.9996351116836385  0.2457433547193945  0.7492720786019414
  0.7491042198509761  0.2349160569534669  0.5012394887190080
  0.9974208222474947  0.7580890546160645  0.7482553882453963
  0.2481153889994645  0.4994455012671509  0.7521515287795854
  0.2593412351780636  0.2456206531087777  0.9924469129322623
  0.5070176262125521  0.2520396143363428  0.2405148075573188
  0.7619355309511143  0.9932982656075267  0.2381563056994575
  0.7515321228344120  0.2602634279731918  0.0056837699485533
  0.2441958044344520  0.7453321978827662  0.0008806298921902
  0.2469388534155644  0.2456811716102450  0.5088471414588263
  0.2570736436675370  0.7511424117675527  0.4932852475604184
  0.2513082970597346  0.2474789540617159  0.2490431163505577
  0.2605216098168325  0.9987029032289755  0.9893688736712862
  0.0006126207583168  0.2503392364065921  0.0003976268237758
  0.7476162086173537  0.2423131673525455  0.2489941008778717
  0.7397800210601965  0.0009532090154960  0.0041960727073212
  0.5116910004892514  0.0066103411912680  0.2658809664513107
  0.9947445094144268  0.4983549979132945  0.2433477835210608
  0.4949380967500704  0.7636511065303526  0.0080635849315775
  0.9976316392692880  0.0028401578041175  0.7447067733596706
  0.7545241413925061  0.2438529901667316  0.7524431780741749
  0.7636939464446838  0.9985316551801808  0.4940853705061802
  0.4994727387884722  0.2433415764894651  0.4917903100775446
  0.5112685984232926  0.0035775188027943  0.7447076699449365
  0.9997061699144837  0.9999976170976184  0.2509253724043751
  0.5020995496368407  0.2375242850643433  0.0057257304585593
  0.2544722176637190  0.7486828374754632  0.2494841572544006
  0.2392727881094019  0.5002642943863012  0.9971462537870478
  0.0016437128849431  0.7408974652760565  0.0043277580084085
  0.7462549542603778  0.7497539544266367  0.2540583117218214
  0.7615418863834522  0.4943400090631749  0.0063623301584345
  0.4990531840475534  0.5009176644664705  0.2527489517572918
  0.2475786132683235  0.2440171722375209  0.7499207114204280
  0.2560334595547437  0.9999702555524915  0.5108956122081849
  0.0025467062214972  0.2454149076303803  0.4984977502101305
  0.2461351690005943  0.7578768006483633  0.7516280020731224
  0.2557524109883166  0.4998492814958259  0.5016249888100047
  0.9982959059241373  0.7566772735268112  0.4951619860793781
  0.9960384833050304  0.5014686436919947  0.7569364110859195
  0.7504296338505049  0.7565934586044820  0.7456836495110548
  0.7427430732066341  0.4956881950489184  0.5054597207416229
  0.4993532476890967  0.7673796485062964  0.4832926249177131
  0.5043729346620384  0.5014629718609445  0.7433161143375921
  0.5132869501918573  0.0175132934317373  0.9689424061029679
  0.0012486919497342  0.5196455962790617  0.9783811153780295
  0.4739824759458538  0.7277184018606716  0.2612759661498497
  0.2494476265849578  0.0033772083277900  0.7555517075342686
  0.4595515590428352  0.9901486497034654  0.5167202481375170
  0.7276495204966648  0.9746095077794689  0.7816585802353085
  0.0198226574966648  0.7675821630259178  0.2548054905395135
  0.7281805544795740  0.5110683058453720  0.2498233223280178
  0.0270673167473727  0.0020319292944255  0.4841206413453897
  0.5033340976331617  0.5277622334715284  0.4934403683621836
  0.7515470982980831  0.5212902026551660  0.7678211449057429
  0.7362974531573629  0.7358223705951893  0.4944514617097044
 
  0.00000000E+00  0.00000000E+00  0.00000000E+00
  0.00000000E+00  0.00000000E+00  0.00000000E+00
  0.00000000E+00  0.00000000E+00  0.00000000E+00
  0.00000000E+00  0.00000000E+00  0.00000000E+00
  0.00000000E+00  0.00000000E+00  0.00000000E+00
  0.00000000E+00  0.00000000E+00  0.00000000E+00
  0.00000000E+00  0.00000000E+00  0.00000000E+00
  0.00000000E+00  0.00000000E+00  0.00000000E+00
  0.00000000E+00  0.00000000E+00  0.00000000E+00
  0.00000000E+00  0.00000000E+00  0.00000000E+00
  0.00000000E+00  0.00000000E+00  0.00000000E+00
  0.00000000E+00  0.00000000E+00  0.00000000E+00
  0.00000000E+00  0.00000000E+00  0.00000000E+00
  0.00000000E+00  0.00000000E+00  0.00000000E+00
  0.00000000E+00  0.00000000E+00  0.00000000E+00
  0.00000000E+00  0.00000000E+00  0.00000000E+00
  0.00000000E+00  0.00000000E+00  0.00000000E+00
  0.00000000E+00  0.00000000E+00  0.00000000E+00
  0.00000000E+00  0.00000000E+00  0.00000000E+00
  0.00000000E+00  0.00000000E+00  0.00000000E+00
  0.00000000E+00  0.00000000E+00  0.00000000E+00
  0.00000000E+00  0.00000000E+00  0.00000000E+00
  0.00000000E+00  0.00000000E+00  0.00000000E+00
  0.00000000E+00  0.00000000E+00  0.00000000E+00
  0.00000000E+00  0.00000000E+00  0.00000000E+00
  0.00000000E+00  0.00000000E+00  0.00000000E+00
  0.00000000E+00  0.00000000E+00  0.00000000E+00
  0.00000000E+00  0.00000000E+00  0.00000000E+00
  0.00000000E+00  0.00000000E+00  0.00000000E+00
  0.00000000E+00  0.00000000E+00  0.00000000E+00
  0.00000000E+00  0.00000000E+00  0.00000000E+00
  0.00000000E+00  0.00000000E+00  0.00000000E+00
  0.00000000E+00  0.00000000E+00  0.00000000E+00
  0.00000000E+00  0.00000000E+00  0.00000000E+00
  0.00000000E+00  0.00000000E+00  0.00000000E+00
  0.00000000E+00  0.00000000E+00  0.00000000E+00
  0.00000000E+00  0.00000000E+00  0.00000000E+00
  0.00000000E+00  0.00000000E+00  0.00000000E+00
  0.00000000E+00  0.00000000E+00  0.00000000E+00
  0.00000000E+00  0.00000000E+00  0.00000000E+00
  0.00000000E+00  0.00000000E+00  0.00000000E+00
  0.00000000E+00  0.00000000E+00  0.00000000E+00
  0.00000000E+00  0.00000000E+00  0.00000000E+00
  0.00000000E+00  0.00000000E+00  0.00000000E+00
  0.00000000E+00  0.00000000E+00  0.00000000E+00
  0.00000000E+00  0.00000000E+00  0.00000000E+00
  0.00000000E+00  0.00000000E+00  0.00000000E+00
  0.00000000E+00  0.00000000E+00  0.00000000E+00
  0.00000000E+00  0.00000000E+00  0.00000000E+00
  0.00000000E+00  0.00000000E+00  0.00000000E+00
  0.00000000E+00  0.00000000E+00  0.00000000E+00
  0.00000000E+00  0.00000000E+00  0.00000000E+00
  0.00000000E+00  0.00000000E+00  0.00000000E+00
  0.00000000E+00  0.00000000E+00  0.00000000E+00
  0.00000000E+00  0.00000000E+00  0.00000000E+00
  0.00000000E+00  0.00000000E+00  0.00000000E+00
  0.00000000E+00  0.00000000E+00  0.00000000E+00
  0.00000000E+00  0.00000000E+00  0.00000000E+00
  0.00000000E+00  0.00000000E+00  0.00000000E+00
  0.00000000E+00  0.00000000E+00  0.00000000E+00
  0.00000000E+00  0.00000000E+00  0.00000000E+00
  0.00000000E+00  0.00000000E+00  0.00000000E+00
  0.00000000E+00  0.00000000E+00  0.00000000E+00
  0.00000000E+00  0.00000000E+00  0.00000000E+00
