42-ZrHfNbTaMo                           
   1.00000000000000     
     9.0405597030864477   -0.0093289543301216    0.0100201108304344
    -0.0036672744387128    9.0602213196388721    0.0020842796396678
     0.0425171013390641   -0.0136209839080720    9.0187458971084755
  Zr              Mo              Hf              N               C               Ta              Nb            
     7     6     7    13    19     6     6
Direct
  0.9961022755920037  0.9988895042656225  0.9998529346944717
  0.2502179570707567  0.0004375769578000  0.2513653253940696
  0.2494862631201998  0.4998539760566739  0.2508406132683840
  0.5006208518844938  0.5019130798052271  0.9989897360060040
  0.5011689838935399  0.2459191883744778  0.7434005318784566
  0.9977214115141053  0.4999096751086053  0.4997165821302176
  0.4983550326582612  0.7542036837926032  0.7495352001917015
  0.9874255369787018  0.2310606399137567  0.2682235913727621
  0.7695036627805931  0.7373738243473590  0.9969250997053797
  0.0194649823862115  0.2759481118383119  0.7510133042032364
  0.7697477751139963  0.2587868515726888  0.4791525700988732
  0.9912397176846347  0.7327881001678733  0.7541169254257085
  0.2627192759352841  0.4875781569279874  0.7484231865574832
  0.2442272440301377  0.2522680864958063  0.9948856864002580
  0.5035621731032639  0.2562748614590419  0.2530943430644317
  0.7485911556115362  0.9989275600392878  0.2543525030916360
  0.7571145777263686  0.2578116441802395  0.9923620443518838
  0.2422126218322843  0.7476648693248785  0.9970985280521519
  0.2456481152088717  0.2511506849176786  0.5048112344655975
  0.2443205417906643  0.7493757915888124  0.5044409261959675
  0.2497335912191886  0.2484777649473283  0.2521197081808218
  0.2563198460875520  0.9999308977288021  0.9947859031159306
  0.0005681360997068  0.2541890854796954  0.0112490565203280
  0.7496611096860943  0.2488561289142442  0.2422998110156686
  0.7434560702537913  0.0020703269450747  0.9966817557594299
  0.5025997183961980  0.0007973153474526  0.2490111289805818
  0.9948330852688371  0.4966532525112095  0.2434868381109139
  0.4965857072775703  0.7607982725993445  0.0035627231104176
  0.9992254818078894  0.0009831014055707  0.7485685782764823
  0.7575403450632343  0.2375760305871142  0.7490414673404691
  0.7444395091849739  0.0020065065670803  0.5040262790265480
  0.5017496134029404  0.2407992492447318  0.4954144821244787
  0.5063646644199753  0.0001736209841060  0.7502114760841923
  0.9958199274562277  0.9976358984577642  0.2541573988144106
  0.5036239125813730  0.2424579071399644  0.0011826831055758
  0.2510004895877176  0.7510722408658169  0.2494832248685374
  0.2440508527621455  0.4994188354230066  0.9972395981150837
  0.9999881756876837  0.7460212283200083  0.0015055075572460
  0.7468802372274221  0.7483247014527793  0.2458502317818983
  0.7571769170182945  0.5018161126500167  0.9995257277724011
  0.5029744543074168  0.5020983081726268  0.2527948277413456
  0.2533442844494302  0.2449866244248903  0.7494245551311635
  0.2504710198279599  0.9999666903707338  0.5051828626679707
  0.9950741369214566  0.2485605998221468  0.5140575356363394
  0.2433902991375550  0.7553179949203246  0.7510214328030874
  0.2525148231283539  0.4996377328536292  0.5037037402590330
  0.9953766196070238  0.7548281108839089  0.5040336503162368
  0.0025665563511333  0.5012298131457771  0.7535898264618808
  0.7489174998226205  0.7525096488822853  0.7500026783842125
  0.7467532035828267  0.4955320711253424  0.5006982651555586
  0.4986406514562505  0.7505579815015252  0.4969794773435572
  0.5017410991496294  0.5000276239720628  0.7457975971870286
  0.5023812258716268  0.0068069887684751  0.0080061997261560
  0.9987413489372234  0.5047781620640400  0.9993203745234007
  0.5011878548695695  0.7443499410423458  0.2521682972075803
  0.2302702695069279  0.0036759076019423  0.7462984201089466
  0.4935879095054561  0.9879914896471832  0.4902265843095011
  0.7650416852957289  0.9878732055933899  0.7448780694459387
  0.9963312939849059  0.7635631811542269  0.2532038264434140
  0.7459453561474836  0.5022624585808085  0.2531562261865981
  0.9991655958828909  0.0029215028379061  0.4992474168484300
  0.4998975177910306  0.5127064396561594  0.4994803731542035
  0.7421990488807224  0.5169716748733942  0.7477982351860745
  0.7524190751800132  0.7426512543990520  0.4969252175622840
 
  0.00000000E+00  0.00000000E+00  0.00000000E+00
  0.00000000E+00  0.00000000E+00  0.00000000E+00
  0.00000000E+00  0.00000000E+00  0.00000000E+00
  0.00000000E+00  0.00000000E+00  0.00000000E+00
  0.00000000E+00  0.00000000E+00  0.00000000E+00
  0.00000000E+00  0.00000000E+00  0.00000000E+00
  0.00000000E+00  0.00000000E+00  0.00000000E+00
  0.00000000E+00  0.00000000E+00  0.00000000E+00
  0.00000000E+00  0.00000000E+00  0.00000000E+00
  0.00000000E+00  0.00000000E+00  0.00000000E+00
  0.00000000E+00  0.00000000E+00  0.00000000E+00
  0.00000000E+00  0.00000000E+00  0.00000000E+00
  0.00000000E+00  0.00000000E+00  0.00000000E+00
  0.00000000E+00  0.00000000E+00  0.00000000E+00
  0.00000000E+00  0.00000000E+00  0.00000000E+00
  0.00000000E+00  0.00000000E+00  0.00000000E+00
  0.00000000E+00  0.00000000E+00  0.00000000E+00
  0.00000000E+00  0.00000000E+00  0.00000000E+00
  0.00000000E+00  0.00000000E+00  0.00000000E+00
  0.00000000E+00  0.00000000E+00  0.00000000E+00
  0.00000000E+00  0.00000000E+00  0.00000000E+00
  0.00000000E+00  0.00000000E+00  0.00000000E+00
  0.00000000E+00  0.00000000E+00  0.00000000E+00
  0.00000000E+00  0.00000000E+00  0.00000000E+00
  0.00000000E+00  0.00000000E+00  0.00000000E+00
  0.00000000E+00  0.00000000E+00  0.00000000E+00
  0.00000000E+00  0.00000000E+00  0.00000000E+00
  0.00000000E+00  0.00000000E+00  0.00000000E+00
  0.00000000E+00  0.00000000E+00  0.00000000E+00
  0.00000000E+00  0.00000000E+00  0.00000000E+00
  0.00000000E+00  0.00000000E+00  0.00000000E+00
  0.00000000E+00  0.00000000E+00  0.00000000E+00
  0.00000000E+00  0.00000000E+00  0.00000000E+00
  0.00000000E+00  0.00000000E+00  0.00000000E+00
  0.00000000E+00  0.00000000E+00  0.00000000E+00
  0.00000000E+00  0.00000000E+00  0.00000000E+00
  0.00000000E+00  0.00000000E+00  0.00000000E+00
  0.00000000E+00  0.00000000E+00  0.00000000E+00
  0.00000000E+00  0.00000000E+00  0.00000000E+00
  0.00000000E+00  0.00000000E+00  0.00000000E+00
  0.00000000E+00  0.00000000E+00  0.00000000E+00
  0.00000000E+00  0.00000000E+00  0.00000000E+00
  0.00000000E+00  0.00000000E+00  0.00000000E+00
  0.00000000E+00  0.00000000E+00  0.00000000E+00
  0.00000000E+00  0.00000000E+00  0.00000000E+00
  0.00000000E+00  0.00000000E+00  0.00000000E+00
  0.00000000E+00  0.00000000E+00  0.00000000E+00
  0.00000000E+00  0.00000000E+00  0.00000000E+00
  0.00000000E+00  0.00000000E+00  0.00000000E+00
  0.00000000E+00  0.00000000E+00  0.00000000E+00
  0.00000000E+00  0.00000000E+00  0.00000000E+00
  0.00000000E+00  0.00000000E+00  0.00000000E+00
  0.00000000E+00  0.00000000E+00  0.00000000E+00
  0.00000000E+00  0.00000000E+00  0.00000000E+00
  0.00000000E+00  0.00000000E+00  0.00000000E+00
  0.00000000E+00  0.00000000E+00  0.00000000E+00
  0.00000000E+00  0.00000000E+00  0.00000000E+00
  0.00000000E+00  0.00000000E+00  0.00000000E+00
  0.00000000E+00  0.00000000E+00  0.00000000E+00
  0.00000000E+00  0.00000000E+00  0.00000000E+00
  0.00000000E+00  0.00000000E+00  0.00000000E+00
  0.00000000E+00  0.00000000E+00  0.00000000E+00
  0.00000000E+00  0.00000000E+00  0.00000000E+00
  0.00000000E+00  0.00000000E+00  0.00000000E+00
