42-ZrHfNbTaMo                           
   1.00000000000000     
     9.0397286713521883   -0.0087969084984639    0.0095350116290770
    -0.0031327257544234    9.0603302759630076    0.0011677651608842
     0.0420280952926755   -0.0145310510031292    9.0182386631601297
   Zr   Mo   Hf   N    C    Ta   Nb
     7     6     7    13    19     6     6
Direct
  0.9961438835255028  0.9988857185352851 -0.0001405980240703
  0.2501833887397191  0.0004422736411258  0.2513974731277687
  0.2494571680905772  0.4998749073148993  0.2508529010230180
  0.5006411702336729  0.5019009898525111  0.9989969456250894
  0.5011679138904170  0.2458983735255532  0.7433962315567296
  0.9977008291985494  0.4999358780151098  0.4997228755954055
  0.4983615492471631  0.7542190548449356  0.7495119583238101
  0.9874232068266279  0.2310721654415252  0.2682421895012164
  0.7695196035853561  0.7373825506768996 -0.0031152800051199
  0.0194811061623708  0.2759293700266230  0.7509623801566402
  0.7697512722139741  0.2588450562855324  0.4791441942936160
  0.9912230800000503  0.7327962727406082  0.7541590665706738
  0.2626957932354606  0.4875530589518194  0.7484120534312285
  0.2442596655163005  0.2522684963676967  0.9948784501491479
  0.5035573070747490  0.2563005900881060  0.2530791643197616
  0.7486140526108269  0.9989164231787804  0.2542912534167890
  0.7570990105899982  0.2577914520396094  0.9923544794090755
  0.2421982755718431  0.7476777565397507  0.9970861311201535
  0.2456537417420085  0.2511458597177696  0.5047955130232294
  0.2443015246102209  0.7493884358479653  0.5044260361182185
  0.2497318926942177  0.2484942292188899  0.2521092010004098
  0.2563294897803022 -0.0000670624887759  0.9948124385774003
  0.0005706537272043  0.2542194966793921  0.0112495190758650
  0.7496770381612764  0.2488547607883933  0.2422730641845982
  0.7434493355024282  0.0020668988968365 -0.0033242610232996
  0.5025978685749432  0.0008099495921915  0.2490277693342757
  0.9948501437779131  0.4966699525655795  0.2435071660459104
  0.4965868542845804  0.7607958562077412  0.0035554099848792
  0.9992195864312065  0.0009896268365520  0.7486011810245672
  0.7575444804935799  0.2375513768126579  0.7490424395226141
  0.7444367205125293  0.0019861165106546  0.5040192425196852
  0.5017738188833047  0.2408180827941609  0.4954061433067068
  0.5063633277593759  0.0001696694074485  0.7502239674112462
  0.9958375601585376  0.9976224873024718  0.2541645805048828
  0.5036235660168082  0.2424618250600480  0.0012041825537517
  0.2509965908596471  0.7510869507614458  0.2494748716025506
  0.2440505375504426  0.4994356605413402  0.9972534389457933
  0.0000091010107812  0.7460200438952669  0.0015082762994481
  0.7468714014940960  0.7483052979415101  0.2458470919397113
  0.7571810539465030  0.5018289383377909 -0.0004582807120213
  0.5029861065439787  0.5021111131666663  0.2527921366041072
  0.2533538111317674  0.2449716234461770  0.7494257157926318
  0.2504702181391730 -0.0000163405004589  0.5051618616701057
  0.9950304047499156  0.2485642271857960  0.5140276228187329
  0.2433719108261877  0.7553175286599592  0.7510038118698534
  0.2525133045261260  0.4996499299726180  0.5036982034240481
  0.9953641780742555  0.7548210994090274  0.5040252540414747
  0.0025632886535733  0.5012423921607475  0.7536128639699611
  0.7489062629180001  0.7524822219545380  0.7499724148220994
  0.7467652143968329  0.4955524614735888  0.5007307684254533
  0.4986383113449446  0.7505424227995353  0.4969702014025422
  0.5017374983826968  0.5000360913155372  0.7458017926659598
  0.5023387480361805  0.0068189945544313  0.0080625281461999
 -0.0012629607532059  0.5048060681131299  0.9993245624976582
  0.5012049134613138  0.7443159228300887  0.2522123467288641
  0.2302832623111880  0.0036901067890679  0.7462715297916426
  0.4936101278495692  0.9879734630722321  0.4901687762376640
  0.7650654693124527  0.9878627210011397  0.7449111928840954
  0.9963034531967064  0.7635161873991398  0.2531762368478301
  0.7459957904147532  0.5021987239410725  0.2531605256903825
 -0.0009099191691244  0.0029307844039375  0.4993050268437510
  0.4999192152350060  0.5126553382753591  0.4994882342753796
  0.7422460562580919  0.5169664649976243  0.7478196304167850
  0.7523711458745085  0.7426453632853774  0.4969260373014819
 
  0.00000000E+00  0.00000000E+00  0.00000000E+00
  0.00000000E+00  0.00000000E+00  0.00000000E+00
  0.00000000E+00  0.00000000E+00  0.00000000E+00
  0.00000000E+00  0.00000000E+00  0.00000000E+00
  0.00000000E+00  0.00000000E+00  0.00000000E+00
  0.00000000E+00  0.00000000E+00  0.00000000E+00
  0.00000000E+00  0.00000000E+00  0.00000000E+00
  0.00000000E+00  0.00000000E+00  0.00000000E+00
  0.00000000E+00  0.00000000E+00  0.00000000E+00
  0.00000000E+00  0.00000000E+00  0.00000000E+00
  0.00000000E+00  0.00000000E+00  0.00000000E+00
  0.00000000E+00  0.00000000E+00  0.00000000E+00
  0.00000000E+00  0.00000000E+00  0.00000000E+00
  0.00000000E+00  0.00000000E+00  0.00000000E+00
  0.00000000E+00  0.00000000E+00  0.00000000E+00
  0.00000000E+00  0.00000000E+00  0.00000000E+00
  0.00000000E+00  0.00000000E+00  0.00000000E+00
  0.00000000E+00  0.00000000E+00  0.00000000E+00
  0.00000000E+00  0.00000000E+00  0.00000000E+00
  0.00000000E+00  0.00000000E+00  0.00000000E+00
  0.00000000E+00  0.00000000E+00  0.00000000E+00
  0.00000000E+00  0.00000000E+00  0.00000000E+00
  0.00000000E+00  0.00000000E+00  0.00000000E+00
  0.00000000E+00  0.00000000E+00  0.00000000E+00
  0.00000000E+00  0.00000000E+00  0.00000000E+00
  0.00000000E+00  0.00000000E+00  0.00000000E+00
  0.00000000E+00  0.00000000E+00  0.00000000E+00
  0.00000000E+00  0.00000000E+00  0.00000000E+00
  0.00000000E+00  0.00000000E+00  0.00000000E+00
  0.00000000E+00  0.00000000E+00  0.00000000E+00
  0.00000000E+00  0.00000000E+00  0.00000000E+00
  0.00000000E+00  0.00000000E+00  0.00000000E+00
  0.00000000E+00  0.00000000E+00  0.00000000E+00
  0.00000000E+00  0.00000000E+00  0.00000000E+00
  0.00000000E+00  0.00000000E+00  0.00000000E+00
  0.00000000E+00  0.00000000E+00  0.00000000E+00
  0.00000000E+00  0.00000000E+00  0.00000000E+00
  0.00000000E+00  0.00000000E+00  0.00000000E+00
  0.00000000E+00  0.00000000E+00  0.00000000E+00
  0.00000000E+00  0.00000000E+00  0.00000000E+00
  0.00000000E+00  0.00000000E+00  0.00000000E+00
  0.00000000E+00  0.00000000E+00  0.00000000E+00
  0.00000000E+00  0.00000000E+00  0.00000000E+00
  0.00000000E+00  0.00000000E+00  0.00000000E+00
  0.00000000E+00  0.00000000E+00  0.00000000E+00
  0.00000000E+00  0.00000000E+00  0.00000000E+00
  0.00000000E+00  0.00000000E+00  0.00000000E+00
  0.00000000E+00  0.00000000E+00  0.00000000E+00
  0.00000000E+00  0.00000000E+00  0.00000000E+00
  0.00000000E+00  0.00000000E+00  0.00000000E+00
  0.00000000E+00  0.00000000E+00  0.00000000E+00
  0.00000000E+00  0.00000000E+00  0.00000000E+00
  0.00000000E+00  0.00000000E+00  0.00000000E+00
  0.00000000E+00  0.00000000E+00  0.00000000E+00
  0.00000000E+00  0.00000000E+00  0.00000000E+00
  0.00000000E+00  0.00000000E+00  0.00000000E+00
  0.00000000E+00  0.00000000E+00  0.00000000E+00
  0.00000000E+00  0.00000000E+00  0.00000000E+00
  0.00000000E+00  0.00000000E+00  0.00000000E+00
  0.00000000E+00  0.00000000E+00  0.00000000E+00
  0.00000000E+00  0.00000000E+00  0.00000000E+00
  0.00000000E+00  0.00000000E+00  0.00000000E+00
  0.00000000E+00  0.00000000E+00  0.00000000E+00
  0.00000000E+00  0.00000000E+00  0.00000000E+00
