22-TiHfVNbMo                            
   1.00000000000000     
     8.7942619109072702    0.0004232397441700    0.0163597086702365
     0.0005065423395670    8.8548130198881161   -0.0050933517484349
     0.0163430203617088   -0.0050086812210513    8.7637137878157070
   Ti   Mo   Hf   N    C    Nb   V 
     7     6     7    13    19     6     6
Direct
 -0.0101080040264941 -0.0074558945580462  0.0036190855989168
  0.2460178481298977 -0.0048816035295557  0.2556434571192726
  0.2581344482516060  0.5068173705799753  0.2503728302086224
  0.4991924190778648  0.4995917590392934 -0.0011557203588397
  0.4937171823372550  0.2520968099150846  0.7475399089341079
 -0.0013479187981405  0.5010223321458570  0.4872395213101859
  0.5040196261987475  0.7473921436569909  0.7458502636160453
 -0.0062458177263579  0.2298554447231162  0.2651130801444854
  0.7604569541115980  0.7428064265397266 -0.0060976666449352
  0.0150733625356045  0.2780644518691339  0.7463795937487310
  0.7605087387358561  0.2747172007433164  0.4944310059227462
 -0.0120284056425970  0.7310764050045774  0.7490461602319014
  0.2641048021114514  0.4986549285651328  0.7499732142631874
  0.2444879190984551  0.2483523060724060  0.0017909743180201
  0.5039882519187765  0.2548322445531435  0.2532587538143454
  0.7524997519209676 -0.0047026505746531  0.2592344053749292
  0.7554790968000743  0.2588367972650141 -0.0110001385656182
  0.2478767621488491  0.7513974667857921  0.0002485615156728
  0.2499074746686815  0.2524358105901614  0.5010753471465110
  0.2432344684570434  0.7476035081809552  0.5018374557333981
  0.2501781982364751  0.2457868677333362  0.2522127865082832
  0.2504222514490380 -0.0000114551251513  0.0052548601852853
 -0.0001177342679123  0.2429194765084940  0.0035949165004524
  0.7519027142118259  0.2531943088123906  0.2492735509820671
  0.7553795840071122  0.0033343981128075  0.0024111732463716
  0.4986141182820666  0.0006995237327838  0.2492024471057633
 -0.0012230361135094  0.4933743662152831  0.2517917553158758
  0.4995974636571837  0.7504650357784851 -0.0037701664657332
 -0.0021396435085055  0.0011361726117519  0.7500436923961054
  0.7499668408020573  0.2472081308370617  0.7428770988279829
  0.7517613437405128 -0.0006106904196517  0.5038764911570999
  0.5044784719309799  0.2483624703323339  0.5046325263340249
  0.5001282833354506 -0.0012228609229203  0.7485497663509997
  0.0035345111922433 -0.0074364789037932  0.2532886220310005
  0.5022649557983896  0.2501185865866213 -0.0048026309260662
  0.2470351699072801  0.7509449306117133  0.2508614911737224
  0.2507390598973465  0.4997940890173432  0.0053870223534392
 -0.0023148413428785  0.7524153017114089  0.0064867665850736
  0.7562461691440026  0.7404396149097157  0.2526917301378446
  0.7469963215007620  0.5058702500962202 -0.0015850240725628
  0.5027710922679803  0.5027941915017964  0.2519160088624549
  0.2550645030051790  0.2497930234122024  0.7509076526225080
  0.2444011902176901 -0.0005707940685299  0.4965408196754450
 -0.0035291708160098  0.2494603277559661  0.5068210564995073
  0.2488891226436728  0.7506368883487496  0.7507922006528550
  0.2534220558145248  0.5004660642860306  0.4964360441782607
 -0.0105436710092956  0.7515935831425735  0.4966496887105791
 -0.0053669153284598  0.5024499404762198  0.7462228182077921
  0.7426797475523021  0.7418681840669690  0.7408557239894078
  0.7494303464294939  0.5052134564784656  0.4992649674438562
  0.5052174976067999  0.7439634638087121  0.5027485307387969
  0.5042594722835141  0.5005963885006562  0.7462725090973724
  0.5117740265447910  0.0066038046657057 -0.0088681527838817
 -0.0028847015348589  0.5077784899233124  0.0101593413699929
  0.5045931893083503  0.7444991820661758  0.2537985210236546
  0.2369310165304974 -0.0019373043711333  0.7445379987139825
  0.4912727000263607 -0.0123884739910214  0.5059987319698207
  0.7566204205004671 -0.0162384795911280  0.7481264663676199
 -0.0009472731029904  0.7705188193070897  0.2574135383166908
  0.7358630933070980  0.5078877746283559  0.2538566680523272
  0.0104135719322697 -0.0003754817409194  0.4931941851412823
  0.4993741975917535  0.5159328903814772  0.4982180823752698
  0.7301140493572122  0.5175554922348082  0.7468673077779303
  0.7577619487026537  0.7266039449738643  0.4945909938378164
 
  0.00000000E+00  0.00000000E+00  0.00000000E+00
  0.00000000E+00  0.00000000E+00  0.00000000E+00
  0.00000000E+00  0.00000000E+00  0.00000000E+00
  0.00000000E+00  0.00000000E+00  0.00000000E+00
  0.00000000E+00  0.00000000E+00  0.00000000E+00
  0.00000000E+00  0.00000000E+00  0.00000000E+00
  0.00000000E+00  0.00000000E+00  0.00000000E+00
  0.00000000E+00  0.00000000E+00  0.00000000E+00
  0.00000000E+00  0.00000000E+00  0.00000000E+00
  0.00000000E+00  0.00000000E+00  0.00000000E+00
  0.00000000E+00  0.00000000E+00  0.00000000E+00
  0.00000000E+00  0.00000000E+00  0.00000000E+00
  0.00000000E+00  0.00000000E+00  0.00000000E+00
  0.00000000E+00  0.00000000E+00  0.00000000E+00
  0.00000000E+00  0.00000000E+00  0.00000000E+00
  0.00000000E+00  0.00000000E+00  0.00000000E+00
  0.00000000E+00  0.00000000E+00  0.00000000E+00
  0.00000000E+00  0.00000000E+00  0.00000000E+00
  0.00000000E+00  0.00000000E+00  0.00000000E+00
  0.00000000E+00  0.00000000E+00  0.00000000E+00
  0.00000000E+00  0.00000000E+00  0.00000000E+00
  0.00000000E+00  0.00000000E+00  0.00000000E+00
  0.00000000E+00  0.00000000E+00  0.00000000E+00
  0.00000000E+00  0.00000000E+00  0.00000000E+00
  0.00000000E+00  0.00000000E+00  0.00000000E+00
  0.00000000E+00  0.00000000E+00  0.00000000E+00
  0.00000000E+00  0.00000000E+00  0.00000000E+00
  0.00000000E+00  0.00000000E+00  0.00000000E+00
  0.00000000E+00  0.00000000E+00  0.00000000E+00
  0.00000000E+00  0.00000000E+00  0.00000000E+00
  0.00000000E+00  0.00000000E+00  0.00000000E+00
  0.00000000E+00  0.00000000E+00  0.00000000E+00
  0.00000000E+00  0.00000000E+00  0.00000000E+00
  0.00000000E+00  0.00000000E+00  0.00000000E+00
  0.00000000E+00  0.00000000E+00  0.00000000E+00
  0.00000000E+00  0.00000000E+00  0.00000000E+00
  0.00000000E+00  0.00000000E+00  0.00000000E+00
  0.00000000E+00  0.00000000E+00  0.00000000E+00
  0.00000000E+00  0.00000000E+00  0.00000000E+00
  0.00000000E+00  0.00000000E+00  0.00000000E+00
  0.00000000E+00  0.00000000E+00  0.00000000E+00
  0.00000000E+00  0.00000000E+00  0.00000000E+00
  0.00000000E+00  0.00000000E+00  0.00000000E+00
  0.00000000E+00  0.00000000E+00  0.00000000E+00
  0.00000000E+00  0.00000000E+00  0.00000000E+00
  0.00000000E+00  0.00000000E+00  0.00000000E+00
  0.00000000E+00  0.00000000E+00  0.00000000E+00
  0.00000000E+00  0.00000000E+00  0.00000000E+00
  0.00000000E+00  0.00000000E+00  0.00000000E+00
  0.00000000E+00  0.00000000E+00  0.00000000E+00
  0.00000000E+00  0.00000000E+00  0.00000000E+00
  0.00000000E+00  0.00000000E+00  0.00000000E+00
  0.00000000E+00  0.00000000E+00  0.00000000E+00
  0.00000000E+00  0.00000000E+00  0.00000000E+00
  0.00000000E+00  0.00000000E+00  0.00000000E+00
  0.00000000E+00  0.00000000E+00  0.00000000E+00
  0.00000000E+00  0.00000000E+00  0.00000000E+00
  0.00000000E+00  0.00000000E+00  0.00000000E+00
  0.00000000E+00  0.00000000E+00  0.00000000E+00
  0.00000000E+00  0.00000000E+00  0.00000000E+00
  0.00000000E+00  0.00000000E+00  0.00000000E+00
  0.00000000E+00  0.00000000E+00  0.00000000E+00
  0.00000000E+00  0.00000000E+00  0.00000000E+00
  0.00000000E+00  0.00000000E+00  0.00000000E+00
