40-ZrHfVTaW                             
   1.00000000000000     
     8.9324741946201680    0.0028348746613524    0.0160738544082394
     0.0029020329772518    9.0556209232783331   -0.0079479776401536
     0.0160295911284127   -0.0078796556314249    8.9372178016977415
   Zr   Ta   Hf   N    C    W    V 
     7     6     7    13    19     6     6
Direct
 -0.0031192306257364 -0.0079497593326714 -0.0007557421455053
  0.2539815037173740 -0.0028534420570238  0.2491151324170807
  0.2480265103775326  0.5016507734658952  0.2495487264381515
  0.5050106051651460  0.4974632979830932 -0.0016558081905953
  0.5047877941563482  0.2463128000268156  0.7470970045652724
 -0.0057241503453049  0.5044996551581677  0.4977911013713635
  0.4995002416864445  0.7548165035640277  0.7481696677533385
 -0.0056316313860108  0.2361745941038463  0.2637996797632539
  0.7571826260262435  0.7410271535084652  0.0109979853174035
  0.0020132047998666  0.2554097569927470  0.7389408706215694
  0.7530711652579871  0.2616282721967532  0.5053252185253536
 -0.0048604900593575  0.7449176753011243  0.7451236504533986
  0.2567998099763414  0.4946243729703881  0.7454480539818630
  0.2478884569301708  0.2483937683512407 -0.0034240184900721
  0.5083256430937626  0.2567710237648829  0.2537553830470047
  0.7487928845378277 -0.0121150092557520  0.2696702502895099
  0.7571911535123593  0.2560328188805581 -0.0040757404180154
  0.2476167339430806  0.7497434081462498 -0.0002598630154050
  0.2527247385255545  0.2482251545627546  0.5001481061578819
  0.2445763196127586  0.7504851691249473  0.4998398715876075
  0.2498183373535297  0.2494325479814984  0.2482454446257941
  0.2614721027131076 -0.0001639818398069 -0.0070424845248041
  0.0028141033633279  0.2502382752911527  0.0013045236046194
  0.7531384180592098  0.2461684491560856  0.2549217694909883
  0.7476696799581413 -0.0025236278626595  0.0120218416686926
  0.5071512683254843 -0.0002321660259760  0.2467347090301167
 -0.0094806993068408  0.4808764211537050  0.2410088404861428
  0.5051863810196978  0.7613066223049302  0.0085464324655296
 -0.0110344298433463  0.0020161497654070  0.7370946057082037
  0.7574481974005975  0.2443851999775527  0.7489679876859723
  0.7363155959077815  0.0041720272943473  0.5106329527187740
  0.5056390604867350  0.2326539623418257  0.4954528700767047
  0.5000856125186036  0.0006087550385092  0.7347186624830160
 -0.0027951421876873 -0.0022750744031354  0.2590026105052697
  0.5042782697864755  0.2467291082486481  0.0026239109803618
  0.2513365519807063  0.7495792922061376  0.2491058956220409
  0.2432796714659340  0.5007293431229842 -0.0048859911634646
 -0.0016273544645692  0.7431427495172630  0.0045971015982235
  0.7563295533769067  0.7389115452027420  0.2576686513992632
  0.7583923810229652  0.5031616158987084  0.0028801747277855
  0.5070001404226196  0.5033293273300835  0.2587881910220215
  0.2490153326981836  0.2531513141340875  0.7485426001647050
  0.2444625829512406 -0.0017617905369937  0.5028851501820538
 -0.0019581815885366  0.2423024039640022  0.5012796794122373
  0.2417660314332380  0.7534122211636145  0.7501833556042123
  0.2584081642436453  0.5006157114514265  0.5012902704217024
 -0.0100013661229952  0.7621534110441417  0.4974633956255803
 -0.0079636973438326  0.5005584774752271  0.7513754863748329
  0.7503651212601712  0.7488815743330157  0.7475590230693414
  0.7403619428635366  0.5019748433597709  0.5006737863813060
  0.5057537469671527  0.7495755475376792  0.4972022830974216
  0.5050114186107753  0.5021833588171603  0.7391189971432554
  0.5158903259406796  0.0135781271957981 -0.0192466705131548
 -0.0015806060043235  0.5097742425368541 -0.0138687357788402
  0.5037910792607765  0.7392703137075102  0.2590498256684672
  0.2377992923277043  0.0108199295238873  0.7460814902728905
  0.4795786099570918 -0.0169218996104356  0.4971764567663612
  0.7427890795211930 -0.0213005733746061  0.7645127098902054
 -0.0013461657843109  0.7757387055010661  0.2610163213889978
  0.7355075981175303  0.5146759497430816  0.2666582890532539
  0.0236252200955717 -0.0021710517867701  0.4955667883284019
  0.5053930465273843  0.5283290336020421  0.4991793470750637
  0.7387564716878738  0.5282795133664631  0.7381467981411068
  0.7540040361185385  0.7293767796955211  0.4911657939889422
 
  0.00000000E+00  0.00000000E+00  0.00000000E+00
  0.00000000E+00  0.00000000E+00  0.00000000E+00
  0.00000000E+00  0.00000000E+00  0.00000000E+00
  0.00000000E+00  0.00000000E+00  0.00000000E+00
  0.00000000E+00  0.00000000E+00  0.00000000E+00
  0.00000000E+00  0.00000000E+00  0.00000000E+00
  0.00000000E+00  0.00000000E+00  0.00000000E+00
  0.00000000E+00  0.00000000E+00  0.00000000E+00
  0.00000000E+00  0.00000000E+00  0.00000000E+00
  0.00000000E+00  0.00000000E+00  0.00000000E+00
  0.00000000E+00  0.00000000E+00  0.00000000E+00
  0.00000000E+00  0.00000000E+00  0.00000000E+00
  0.00000000E+00  0.00000000E+00  0.00000000E+00
  0.00000000E+00  0.00000000E+00  0.00000000E+00
  0.00000000E+00  0.00000000E+00  0.00000000E+00
  0.00000000E+00  0.00000000E+00  0.00000000E+00
  0.00000000E+00  0.00000000E+00  0.00000000E+00
  0.00000000E+00  0.00000000E+00  0.00000000E+00
  0.00000000E+00  0.00000000E+00  0.00000000E+00
  0.00000000E+00  0.00000000E+00  0.00000000E+00
  0.00000000E+00  0.00000000E+00  0.00000000E+00
  0.00000000E+00  0.00000000E+00  0.00000000E+00
  0.00000000E+00  0.00000000E+00  0.00000000E+00
  0.00000000E+00  0.00000000E+00  0.00000000E+00
  0.00000000E+00  0.00000000E+00  0.00000000E+00
  0.00000000E+00  0.00000000E+00  0.00000000E+00
  0.00000000E+00  0.00000000E+00  0.00000000E+00
  0.00000000E+00  0.00000000E+00  0.00000000E+00
  0.00000000E+00  0.00000000E+00  0.00000000E+00
  0.00000000E+00  0.00000000E+00  0.00000000E+00
  0.00000000E+00  0.00000000E+00  0.00000000E+00
  0.00000000E+00  0.00000000E+00  0.00000000E+00
  0.00000000E+00  0.00000000E+00  0.00000000E+00
  0.00000000E+00  0.00000000E+00  0.00000000E+00
  0.00000000E+00  0.00000000E+00  0.00000000E+00
  0.00000000E+00  0.00000000E+00  0.00000000E+00
  0.00000000E+00  0.00000000E+00  0.00000000E+00
  0.00000000E+00  0.00000000E+00  0.00000000E+00
  0.00000000E+00  0.00000000E+00  0.00000000E+00
  0.00000000E+00  0.00000000E+00  0.00000000E+00
  0.00000000E+00  0.00000000E+00  0.00000000E+00
  0.00000000E+00  0.00000000E+00  0.00000000E+00
  0.00000000E+00  0.00000000E+00  0.00000000E+00
  0.00000000E+00  0.00000000E+00  0.00000000E+00
  0.00000000E+00  0.00000000E+00  0.00000000E+00
  0.00000000E+00  0.00000000E+00  0.00000000E+00
  0.00000000E+00  0.00000000E+00  0.00000000E+00
  0.00000000E+00  0.00000000E+00  0.00000000E+00
  0.00000000E+00  0.00000000E+00  0.00000000E+00
  0.00000000E+00  0.00000000E+00  0.00000000E+00
  0.00000000E+00  0.00000000E+00  0.00000000E+00
  0.00000000E+00  0.00000000E+00  0.00000000E+00
  0.00000000E+00  0.00000000E+00  0.00000000E+00
  0.00000000E+00  0.00000000E+00  0.00000000E+00
  0.00000000E+00  0.00000000E+00  0.00000000E+00
  0.00000000E+00  0.00000000E+00  0.00000000E+00
  0.00000000E+00  0.00000000E+00  0.00000000E+00
  0.00000000E+00  0.00000000E+00  0.00000000E+00
  0.00000000E+00  0.00000000E+00  0.00000000E+00
  0.00000000E+00  0.00000000E+00  0.00000000E+00
  0.00000000E+00  0.00000000E+00  0.00000000E+00
  0.00000000E+00  0.00000000E+00  0.00000000E+00
  0.00000000E+00  0.00000000E+00  0.00000000E+00
  0.00000000E+00  0.00000000E+00  0.00000000E+00
