47-ZrVNbTaW                             
   1.00000000000000     
     8.8388504056999402    0.0091029291194805    0.0318026713027367
     0.0150356546737985    8.8829100653035624   -0.0163878643379304
     0.0636464306136833   -0.0316263165460482    8.8734881380580504
   Zr   Nb   V    N    C    W    Ta
     7     6     7    13    19     6     6
Direct
  0.9980529914510141  0.0021745036846863  0.9990728701633681
  0.2598430418188123  0.0037347368257583  0.2446906700136192
  0.2479427171783440  0.4940636587886371  0.2478392177012211
  0.4984401720321973  0.4960795448092317  0.0008792282117268
  0.5016543961065741  0.2463447153859732  0.7500946870048033
  0.0011178904634576  0.4991530392265536  0.5019641272618935
  0.4924891649837444  0.7575901243388453  0.7548651854065750
  0.9916459890476549  0.2357770495751231  0.2560132383374544
  0.7598032906707267  0.7445872704840085  0.0063623549103276
  0.0058163960914188  0.2549556840331612  0.7460607302267780
  0.7557015626892974  0.2515913348087402  0.4945296419357571
  0.0025147084496008  0.7456966078867675  0.7531337398152410
  0.2492320602561647  0.4953965826438796  0.7494583731708551
  0.2558714420851466  0.2565681932272325  0.9873987479144635
  0.5143239176204124  0.2646231491643558  0.2452497085903400
  0.7490897262107110  0.9914780117738641  0.2719470534052912
  0.7431166779457880  0.2550099042372768  0.0007266820304486
  0.2323285531738379  0.7361475130645680  0.0005365217237761
  0.2408618720725941  0.2486281551211953  0.5093024873909296
  0.2504420042447252  0.7505998551911657  0.4993460738681383
  0.2505524808292612  0.2478571769302215  0.2481936968628022
  0.2618534635428119  0.0004991251974187  0.9899933693778878
  0.0020937933270852  0.2550485301563704  0.0017916221709428
  0.7448601474531548  0.2447026652489069  0.2468624497879731
  0.7476072694964000  0.0051930832745124  0.0148417823032849
  0.5158583551975170  0.9994579630434185  0.2434663279117106
  0.9937243910136954  0.4941943959509366  0.2419437842438470
  0.4990213164936338  0.7615111031927436  0.0093200674258157
  0.9907757177377513  0.0030639924798131  0.7441755112075276
  0.7564315738775866  0.2470287773047601  0.7540820525346310
  0.7439394572680065  0.0012383272420043  0.5107670327454727
  0.4989050739707350  0.2405954701872965  0.4893545218497424
  0.4971831450202633  0.0024426071151290  0.7349730308119959
  0.9948200455972285  0.9969986284854436  0.2542767112235723
  0.5010086618059570  0.2456153698386621  0.0100082197023687
  0.2538269021737630  0.7497815402261112  0.2465218965672584
  0.2436081574826860  0.4995289335024850  0.9951572098577983
  0.0045447474639843  0.7452520008019411  0.0031259264180301
  0.7504835327377914  0.7511326647968398  0.2528838262371790
  0.7570862398124032  0.4939613175851472  0.0011580643767457
  0.5031372324138628  0.4959536018483108  0.2549020432762831
  0.2493751404966512  0.2505266728011596  0.7481388671037531
  0.2506040449895254  0.0002516008456823  0.5032156686359467
  0.0049177037665541  0.2464974718791009  0.5004667360224238
  0.2424181163087272  0.7559878349218991  0.7506718172367491
  0.2560894317258653  0.4991307027504392  0.5011596546544672
  0.0020602502561306  0.7562384598642024  0.5001151907778092
  0.9988575184028204  0.5005981679655915  0.7520145770987736
  0.7499013264855862  0.7512771952120224  0.7520667338522015
  0.7451242726564774  0.5003512932426096  0.4993584773117804
  0.4938278186595968  0.7506597377184427  0.4988111053042992
  0.5005430582305829  0.5010904635546215  0.7444479392903254
  0.5186373245763313  0.0138430613073077  0.9840769107324827
  0.0035882584203623  0.5045682678216402  0.9883321805896028
  0.4974926724809708  0.7403619374129905  0.2571469048304371
  0.2439944897952609  0.0091998745306211  0.7481403792251365
  0.4861610229660997  0.9871435488950224  0.4845206021799985
  0.7385076546252299  0.9853738221442675  0.7716136943977054
  0.0038824533040017  0.7620028728694068  0.2515663847209754
  0.7467003955364154  0.4972587163017031  0.2503062535357669
  0.0111605873980525  0.0033734351342883  0.4995046321176047
  0.4969043712582154  0.5116760152206512  0.4989904618998449
  0.7485532307645723  0.5086525547371847  0.7521623843636036
  0.7490889535881442  0.7526791351896742  0.4959020941424678
 
  0.00000000E+00  0.00000000E+00  0.00000000E+00
  0.00000000E+00  0.00000000E+00  0.00000000E+00
  0.00000000E+00  0.00000000E+00  0.00000000E+00
  0.00000000E+00  0.00000000E+00  0.00000000E+00
  0.00000000E+00  0.00000000E+00  0.00000000E+00
  0.00000000E+00  0.00000000E+00  0.00000000E+00
  0.00000000E+00  0.00000000E+00  0.00000000E+00
  0.00000000E+00  0.00000000E+00  0.00000000E+00
  0.00000000E+00  0.00000000E+00  0.00000000E+00
  0.00000000E+00  0.00000000E+00  0.00000000E+00
  0.00000000E+00  0.00000000E+00  0.00000000E+00
  0.00000000E+00  0.00000000E+00  0.00000000E+00
  0.00000000E+00  0.00000000E+00  0.00000000E+00
  0.00000000E+00  0.00000000E+00  0.00000000E+00
  0.00000000E+00  0.00000000E+00  0.00000000E+00
  0.00000000E+00  0.00000000E+00  0.00000000E+00
  0.00000000E+00  0.00000000E+00  0.00000000E+00
  0.00000000E+00  0.00000000E+00  0.00000000E+00
  0.00000000E+00  0.00000000E+00  0.00000000E+00
  0.00000000E+00  0.00000000E+00  0.00000000E+00
  0.00000000E+00  0.00000000E+00  0.00000000E+00
  0.00000000E+00  0.00000000E+00  0.00000000E+00
  0.00000000E+00  0.00000000E+00  0.00000000E+00
  0.00000000E+00  0.00000000E+00  0.00000000E+00
  0.00000000E+00  0.00000000E+00  0.00000000E+00
  0.00000000E+00  0.00000000E+00  0.00000000E+00
  0.00000000E+00  0.00000000E+00  0.00000000E+00
  0.00000000E+00  0.00000000E+00  0.00000000E+00
  0.00000000E+00  0.00000000E+00  0.00000000E+00
  0.00000000E+00  0.00000000E+00  0.00000000E+00
  0.00000000E+00  0.00000000E+00  0.00000000E+00
  0.00000000E+00  0.00000000E+00  0.00000000E+00
  0.00000000E+00  0.00000000E+00  0.00000000E+00
  0.00000000E+00  0.00000000E+00  0.00000000E+00
  0.00000000E+00  0.00000000E+00  0.00000000E+00
  0.00000000E+00  0.00000000E+00  0.00000000E+00
  0.00000000E+00  0.00000000E+00  0.00000000E+00
  0.00000000E+00  0.00000000E+00  0.00000000E+00
  0.00000000E+00  0.00000000E+00  0.00000000E+00
  0.00000000E+00  0.00000000E+00  0.00000000E+00
  0.00000000E+00  0.00000000E+00  0.00000000E+00
  0.00000000E+00  0.00000000E+00  0.00000000E+00
  0.00000000E+00  0.00000000E+00  0.00000000E+00
  0.00000000E+00  0.00000000E+00  0.00000000E+00
  0.00000000E+00  0.00000000E+00  0.00000000E+00
  0.00000000E+00  0.00000000E+00  0.00000000E+00
  0.00000000E+00  0.00000000E+00  0.00000000E+00
  0.00000000E+00  0.00000000E+00  0.00000000E+00
  0.00000000E+00  0.00000000E+00  0.00000000E+00
  0.00000000E+00  0.00000000E+00  0.00000000E+00
  0.00000000E+00  0.00000000E+00  0.00000000E+00
  0.00000000E+00  0.00000000E+00  0.00000000E+00
  0.00000000E+00  0.00000000E+00  0.00000000E+00
  0.00000000E+00  0.00000000E+00  0.00000000E+00
  0.00000000E+00  0.00000000E+00  0.00000000E+00
  0.00000000E+00  0.00000000E+00  0.00000000E+00
  0.00000000E+00  0.00000000E+00  0.00000000E+00
  0.00000000E+00  0.00000000E+00  0.00000000E+00
  0.00000000E+00  0.00000000E+00  0.00000000E+00
  0.00000000E+00  0.00000000E+00  0.00000000E+00
  0.00000000E+00  0.00000000E+00  0.00000000E+00
  0.00000000E+00  0.00000000E+00  0.00000000E+00
  0.00000000E+00  0.00000000E+00  0.00000000E+00
  0.00000000E+00  0.00000000E+00  0.00000000E+00
