105-TiHfNbTaCr                          
   1.00000000000000     
     8.7988349127318717    0.0232467925985295   -0.0015186551900046
     0.0294561904205672    8.8154360265282499   -0.0161029507255179
     0.0301562770579585   -0.0312062166095288    8.8245488077279468
   Hf   Nb   Ti   N    C    Cr   Ta
     7     6     7    13    19     6     6
Direct
  0.0037824490382791  0.9991059996360840  0.9962056252027790
  0.2710833371894671  0.0005281244949213  0.2485234541735139
  0.2451778231556238  0.4945859368889765  0.2471196080083498
  0.4966838933318927  0.4988635649641641  0.0007465330319857
  0.5050304472796870  0.2422472847792414  0.7441019236680411
  0.0003907041820560  0.5007353652777479  0.5047895440713973
  0.4935723662245566  0.7587903965977596  0.7542105272770835
  0.9927841059271991  0.2384861765386515  0.2548075056146732
  0.7514864839499653  0.7481809733697334  0.0046864667130801
  0.0024732584642929  0.2477521925044863  0.7463906831751126
  0.7552741007682717  0.2460454515424915  0.4921077691731017
  0.0008246824293879  0.7512449035285261  0.7532880067607051
  0.2465241783301118  0.4938985388058468  0.7527206487225284
  0.2564623538620316  0.2420065581842975  0.9917214272904034
  0.5063490743107497  0.2580863903117762  0.2508426820248272
  0.7342345061639471  0.9971454709169645  0.2463589641463433
  0.7443358880392184  0.2477078337483043  0.0023874722292955
  0.2486420530755196  0.7488097227045277 -0.0002978739037099
  0.2509477282399419  0.2468722261117428  0.5055683754096242
  0.2519344664052302  0.7537494059399178  0.5022283399473657
  0.2525983530926100  0.2463560323702641  0.2468540941709987
  0.2557282015726658  0.0020179184943965  0.9976671940629128
  0.0025490412092690  0.2499659146018885  0.0003665614808977
  0.7450635725393776  0.2460135097451117  0.2433907974376220
  0.7472480151348534  0.0031190787033715  0.0037301329710461
  0.5094799173920643  0.0027608514153136  0.2439459928440552
  0.9957660315821126  0.4994440351340761  0.2463346223843889
  0.4973930966573505  0.7575042924868767  0.0051336866873112
  0.9891014373169366  0.0025456735841194  0.7470179843422545
  0.7527264874200776  0.2474391639460425  0.7514139608535497
  0.7473086900448926  0.0031824240786356  0.4947050311754034
  0.4982488670443527  0.2460117789719871  0.4941965638856982
  0.5190154743662077  0.0004900120730602  0.7493371625398103
  0.9990684973465257 -0.0014145718702521  0.2508273283544771
  0.5016963119074380  0.2418299407702854  0.0015668673541757
  0.2549428772350662  0.7488796060833490  0.2488331683080929
  0.2411495119714725  0.4986453140536443  0.9975236713514739
  0.0036495837239231  0.7462353112740681  0.0019230259511678
  0.7443315169237359  0.7521148438667173  0.2510115014846528
  0.7590745112492036  0.4963880716295594  0.0011522104005886
  0.5010705850446137  0.4974674472432241  0.2522394250482781
  0.2509069991704758  0.2430945579147800  0.7497594185380567
  0.2564770874067122  0.0002485367500014  0.5075926259736134
  0.0055770333271960  0.2491024178288161  0.5006754979595329
  0.2440653895620205  0.7587069987524306  0.7519531522264362
  0.2527652210552929  0.4993745229904932  0.4997892454701803
 -0.0006422609476102  0.7543663318185357  0.4997234813697607
  0.9979824934068308  0.5001747478321511  0.7573463154555341
  0.7486402538963749  0.7557234303668655  0.7519431424635289
  0.7465776642779595  0.5016411399803992  0.4989157925008951
  0.4946549472422138  0.7600735302586256  0.4933997924666621
  0.5015117412230297  0.5003390160290273  0.7463011459051289
  0.5192624959949272  0.0135463671303904  0.9792180502682959
  0.0043777694222218  0.5182273151239751  0.9841619506164108
  0.4940316639524277  0.7315808240369540  0.2559771711606066
  0.2328476830888502  0.0111379111348493  0.7353333814096251
  0.4827308949009260  0.9861964286949784  0.5256232500532673
  0.7363928685204602  0.9740414186709877  0.7861280350677083
  0.0073994529753356  0.7586839126498273  0.2503701319444881
  0.7488361965275878  0.5015457965485222  0.2491351382770977
  0.0092767059778706  0.0030291383342992  0.5021244426582364
  0.4960053348048866  0.5111527966378795  0.4982875299002228
  0.7502767145097422  0.5076456832344415  0.7539123726374765
  0.7448415445620715  0.7585277627788740  0.4946504058518996
 
  0.00000000E+00  0.00000000E+00  0.00000000E+00
  0.00000000E+00  0.00000000E+00  0.00000000E+00
  0.00000000E+00  0.00000000E+00  0.00000000E+00
  0.00000000E+00  0.00000000E+00  0.00000000E+00
  0.00000000E+00  0.00000000E+00  0.00000000E+00
  0.00000000E+00  0.00000000E+00  0.00000000E+00
  0.00000000E+00  0.00000000E+00  0.00000000E+00
  0.00000000E+00  0.00000000E+00  0.00000000E+00
  0.00000000E+00  0.00000000E+00  0.00000000E+00
  0.00000000E+00  0.00000000E+00  0.00000000E+00
  0.00000000E+00  0.00000000E+00  0.00000000E+00
  0.00000000E+00  0.00000000E+00  0.00000000E+00
  0.00000000E+00  0.00000000E+00  0.00000000E+00
  0.00000000E+00  0.00000000E+00  0.00000000E+00
  0.00000000E+00  0.00000000E+00  0.00000000E+00
  0.00000000E+00  0.00000000E+00  0.00000000E+00
  0.00000000E+00  0.00000000E+00  0.00000000E+00
  0.00000000E+00  0.00000000E+00  0.00000000E+00
  0.00000000E+00  0.00000000E+00  0.00000000E+00
  0.00000000E+00  0.00000000E+00  0.00000000E+00
  0.00000000E+00  0.00000000E+00  0.00000000E+00
  0.00000000E+00  0.00000000E+00  0.00000000E+00
  0.00000000E+00  0.00000000E+00  0.00000000E+00
  0.00000000E+00  0.00000000E+00  0.00000000E+00
  0.00000000E+00  0.00000000E+00  0.00000000E+00
  0.00000000E+00  0.00000000E+00  0.00000000E+00
  0.00000000E+00  0.00000000E+00  0.00000000E+00
  0.00000000E+00  0.00000000E+00  0.00000000E+00
  0.00000000E+00  0.00000000E+00  0.00000000E+00
  0.00000000E+00  0.00000000E+00  0.00000000E+00
  0.00000000E+00  0.00000000E+00  0.00000000E+00
  0.00000000E+00  0.00000000E+00  0.00000000E+00
  0.00000000E+00  0.00000000E+00  0.00000000E+00
  0.00000000E+00  0.00000000E+00  0.00000000E+00
  0.00000000E+00  0.00000000E+00  0.00000000E+00
  0.00000000E+00  0.00000000E+00  0.00000000E+00
  0.00000000E+00  0.00000000E+00  0.00000000E+00
  0.00000000E+00  0.00000000E+00  0.00000000E+00
  0.00000000E+00  0.00000000E+00  0.00000000E+00
  0.00000000E+00  0.00000000E+00  0.00000000E+00
  0.00000000E+00  0.00000000E+00  0.00000000E+00
  0.00000000E+00  0.00000000E+00  0.00000000E+00
  0.00000000E+00  0.00000000E+00  0.00000000E+00
  0.00000000E+00  0.00000000E+00  0.00000000E+00
  0.00000000E+00  0.00000000E+00  0.00000000E+00
  0.00000000E+00  0.00000000E+00  0.00000000E+00
  0.00000000E+00  0.00000000E+00  0.00000000E+00
  0.00000000E+00  0.00000000E+00  0.00000000E+00
  0.00000000E+00  0.00000000E+00  0.00000000E+00
  0.00000000E+00  0.00000000E+00  0.00000000E+00
  0.00000000E+00  0.00000000E+00  0.00000000E+00
  0.00000000E+00  0.00000000E+00  0.00000000E+00
  0.00000000E+00  0.00000000E+00  0.00000000E+00
  0.00000000E+00  0.00000000E+00  0.00000000E+00
  0.00000000E+00  0.00000000E+00  0.00000000E+00
  0.00000000E+00  0.00000000E+00  0.00000000E+00
  0.00000000E+00  0.00000000E+00  0.00000000E+00
  0.00000000E+00  0.00000000E+00  0.00000000E+00
  0.00000000E+00  0.00000000E+00  0.00000000E+00
  0.00000000E+00  0.00000000E+00  0.00000000E+00
  0.00000000E+00  0.00000000E+00  0.00000000E+00
  0.00000000E+00  0.00000000E+00  0.00000000E+00
  0.00000000E+00  0.00000000E+00  0.00000000E+00
  0.00000000E+00  0.00000000E+00  0.00000000E+00
