37-ZrHfVNbMo                            
   1.00000000000000     
     8.9456194388839183   -0.0124966680069137    0.0298398207957937
    -0.0123292498668309    9.0475089156487112   -0.0104165730252469
     0.0297871722561890   -0.0104524069263712    8.9292422583525308
   Zr   Mo   Hf   N    C    Nb   V 
     7     6     7    13    19     6     6
Direct
 -0.0076046250827770 -0.0030793221243031 -0.0009112878177712
  0.2511305729245830 -0.0001906518053835  0.2520333982036500
  0.2509646409704808  0.5008170919508668  0.2521569804020128
  0.5028074978431978  0.5036649183509886 -0.0007774778287239
  0.5050119726065996  0.2487738936319071  0.7410086689933724
 -0.0069415858716929  0.5016680147054480  0.4937554969078436
  0.4980183391714854  0.7535999928248666  0.7497587194209906
 -0.0108457918945052  0.2284353201223121  0.2696811120428887
  0.7660302495899132  0.7366949517077889 -0.0076261542234148
  0.0130165709685583  0.2795195619077451  0.7466055681473184
  0.7615884818781188  0.2697339135537542  0.4885005182104619
 -0.0102194944037451  0.7309692690312380  0.7546304750834378
  0.2630315746698027  0.4927962920744346  0.7463882505090953
  0.2456098964257721  0.2512468653163339 -0.0029538854594556
  0.5105069820701663  0.2560115305198887  0.2556038833331011
  0.7500765137335886 -0.0070767462783223  0.2618808034583056
  0.7586861130039638  0.2607342329463387 -0.0086128576513834
  0.2412540613744129  0.7482070715934633  0.0004093172649193
  0.2488109366276939  0.2511240506240112  0.5031524161057302
  0.2407879292865555  0.7499125877169210  0.5028586524308285
  0.2517583699147348  0.2478253339717934  0.2517282991622564
  0.2540785705818849  0.0000187317618205 -0.0030587551923410
  0.0016809706342494  0.2492600220670375  0.0062726096330853
  0.7533043945857789  0.2495693506786124  0.2489487144662619
  0.7478848368092588  0.0026175407337137  0.0023752544457528
  0.5050480213789391  0.0021468959941825  0.2504887887278690
 -0.0105156917860934  0.4849748028897852  0.2451842441327533
  0.4981749167647111  0.7583026148129323  0.0036646509510214
 -0.0013458097174652 -0.0031334551663770  0.7425200669767297
  0.7602931550326286  0.2336356916641072  0.7464936714357656
  0.7506513102301106 -0.0075362190046438  0.5031003163384307
  0.5037452967509209  0.2381527278747029  0.4954246278216382
  0.5016826805299680  0.0005631187276562  0.7479460131958728
 -0.0029749463837991 -0.0065694159116609  0.2601854850458798
  0.5050817773346230  0.2442209890134052  0.0003572857005358
  0.2461316933301503  0.7509830961121013  0.2507369729702466
  0.2453517510712043  0.4991780521516136 -0.0024428652833929
 -0.0033826002466498  0.7445894273434029  0.0096200598549519
  0.7566039006051054  0.7406019447626635  0.2529133160006454
  0.7552789047902110  0.5048146874111876 -0.0016152204710624
  0.5092411458684536  0.5032799444834436  0.2589765726049190
  0.2498215426504946  0.2486731283059913  0.7498036473975906
  0.2440819721852021 -0.0004645755546627  0.5024136253929233
 -0.0054457980698619  0.2417393248358806  0.5103059188533293
  0.2406024780949306  0.7522704754736232  0.7516186281526490
  0.2572406825296629  0.5008683756826058  0.5038030822933642
 -0.0114827234441296  0.7593998888637402  0.4995726524516236
 -0.0076547162963549  0.5017400481141469  0.7519215744556960
  0.7486381051595353  0.7426195728220885  0.7406593593470259
  0.7384870557083226  0.5033222301561864  0.5002795882282713
  0.5022040249987653  0.7459635507947692  0.4967967163532302
  0.5056267555025541  0.5018957031648102  0.7380193312897534
  0.5127172160399331  0.0074890534040652 -0.0061317234220445
 -0.0038977306558463  0.5045460921458715  0.0041287502469364
  0.5049735779135907  0.7459954899098109  0.2528337049934287
  0.2331371752087635  0.0028408241526462  0.7434513955714208
  0.4900779108455199 -0.0150586184184812  0.5027120294570484
  0.7611364026903981 -0.0185663089414636  0.7446660524023607
 -0.0020810033136960  0.7769958938695839  0.2609696545135350
  0.7384103898198082  0.5134640580121920  0.2621159246463205
  0.0112860248765379 -0.0003138608760012  0.4956740518397605
  0.5010743892299947  0.5276019784988910  0.4974846399429600
  0.7325917071785474  0.5278462066436023  0.7356916391503588
  0.7589617491762860  0.7380734201983814  0.4938477223914892
 
  0.00000000E+00  0.00000000E+00  0.00000000E+00
  0.00000000E+00  0.00000000E+00  0.00000000E+00
  0.00000000E+00  0.00000000E+00  0.00000000E+00
  0.00000000E+00  0.00000000E+00  0.00000000E+00
  0.00000000E+00  0.00000000E+00  0.00000000E+00
  0.00000000E+00  0.00000000E+00  0.00000000E+00
  0.00000000E+00  0.00000000E+00  0.00000000E+00
  0.00000000E+00  0.00000000E+00  0.00000000E+00
  0.00000000E+00  0.00000000E+00  0.00000000E+00
  0.00000000E+00  0.00000000E+00  0.00000000E+00
  0.00000000E+00  0.00000000E+00  0.00000000E+00
  0.00000000E+00  0.00000000E+00  0.00000000E+00
  0.00000000E+00  0.00000000E+00  0.00000000E+00
  0.00000000E+00  0.00000000E+00  0.00000000E+00
  0.00000000E+00  0.00000000E+00  0.00000000E+00
  0.00000000E+00  0.00000000E+00  0.00000000E+00
  0.00000000E+00  0.00000000E+00  0.00000000E+00
  0.00000000E+00  0.00000000E+00  0.00000000E+00
  0.00000000E+00  0.00000000E+00  0.00000000E+00
  0.00000000E+00  0.00000000E+00  0.00000000E+00
  0.00000000E+00  0.00000000E+00  0.00000000E+00
  0.00000000E+00  0.00000000E+00  0.00000000E+00
  0.00000000E+00  0.00000000E+00  0.00000000E+00
  0.00000000E+00  0.00000000E+00  0.00000000E+00
  0.00000000E+00  0.00000000E+00  0.00000000E+00
  0.00000000E+00  0.00000000E+00  0.00000000E+00
  0.00000000E+00  0.00000000E+00  0.00000000E+00
  0.00000000E+00  0.00000000E+00  0.00000000E+00
  0.00000000E+00  0.00000000E+00  0.00000000E+00
  0.00000000E+00  0.00000000E+00  0.00000000E+00
  0.00000000E+00  0.00000000E+00  0.00000000E+00
  0.00000000E+00  0.00000000E+00  0.00000000E+00
  0.00000000E+00  0.00000000E+00  0.00000000E+00
  0.00000000E+00  0.00000000E+00  0.00000000E+00
  0.00000000E+00  0.00000000E+00  0.00000000E+00
  0.00000000E+00  0.00000000E+00  0.00000000E+00
  0.00000000E+00  0.00000000E+00  0.00000000E+00
  0.00000000E+00  0.00000000E+00  0.00000000E+00
  0.00000000E+00  0.00000000E+00  0.00000000E+00
  0.00000000E+00  0.00000000E+00  0.00000000E+00
  0.00000000E+00  0.00000000E+00  0.00000000E+00
  0.00000000E+00  0.00000000E+00  0.00000000E+00
  0.00000000E+00  0.00000000E+00  0.00000000E+00
  0.00000000E+00  0.00000000E+00  0.00000000E+00
  0.00000000E+00  0.00000000E+00  0.00000000E+00
  0.00000000E+00  0.00000000E+00  0.00000000E+00
  0.00000000E+00  0.00000000E+00  0.00000000E+00
  0.00000000E+00  0.00000000E+00  0.00000000E+00
  0.00000000E+00  0.00000000E+00  0.00000000E+00
  0.00000000E+00  0.00000000E+00  0.00000000E+00
  0.00000000E+00  0.00000000E+00  0.00000000E+00
  0.00000000E+00  0.00000000E+00  0.00000000E+00
  0.00000000E+00  0.00000000E+00  0.00000000E+00
  0.00000000E+00  0.00000000E+00  0.00000000E+00
  0.00000000E+00  0.00000000E+00  0.00000000E+00
  0.00000000E+00  0.00000000E+00  0.00000000E+00
  0.00000000E+00  0.00000000E+00  0.00000000E+00
  0.00000000E+00  0.00000000E+00  0.00000000E+00
  0.00000000E+00  0.00000000E+00  0.00000000E+00
  0.00000000E+00  0.00000000E+00  0.00000000E+00
  0.00000000E+00  0.00000000E+00  0.00000000E+00
  0.00000000E+00  0.00000000E+00  0.00000000E+00
  0.00000000E+00  0.00000000E+00  0.00000000E+00
  0.00000000E+00  0.00000000E+00  0.00000000E+00
