3D\Atomistic                            
   1.00000000000000     
     4.4484717741332398    0.0000000000000000    0.0000000000000000
     0.0000000000000000    4.4484717741332398    0.0000000000000000
     0.0000000000000000    0.0000000000000000    4.9676748746803341
  N             
     2
Direct
  0.5000000000000000  0.5000000000000000  0.1124037511002762
  0.5000000000000000  0.5000000000000000  0.8875962488997239
 
  0.00000000E+00  0.00000000E+00  0.00000000E+00
  0.00000000E+00  0.00000000E+00  0.00000000E+00
