12-TiZrVNbMo                            
   1.00000000000000     
     8.8323786364139085   -0.0034363652452589   -0.0034301206546419
    -0.0034321939234327    8.8347454974663879   -0.0133745855164129
    -0.0034413616539234   -0.0134122326143640    8.7805408337519584
   Ti   Nb   V    N    C    Zr   Mo
     7     6     6    13    19     7     6
Direct
  0.9991802505857311  0.0021643249752173  0.0097014864901588
  0.2410279776526027  0.0066978202761094  0.2467085407730060
  0.2606973784950723  0.4864515499022721  0.2525959195686844
  0.5004363117638038  0.4990858396361403 -0.0022789359703370
  0.5007746421439118  0.2589097440920428  0.7503336705250814
  0.0068309245052598  0.4957218873235664  0.4950570429520965
  0.5014420124584490  0.7426472747893974  0.7510540920874902
  0.0015002292754044  0.2442536575963493  0.2541998058306101
  0.7611714727216055  0.7440114255728639  0.0039542854614554
  0.0022070857507923  0.2603602803725550  0.7454693531953542
  0.7564399053471278  0.2630693975179754  0.4923276305589951
  0.9968613360536769  0.7369791211439661  0.7455969651366947
  0.2565942147734788  0.4978241114909919  0.7498193082224585
  0.2673169171444092  0.2643926004081629  0.9888747957210997
  0.5113084216756375  0.2627069364632322  0.2434947541040446
  0.7669344871538530  0.9889971380238136  0.2457931484910052
  0.7270540022082010  0.2569279301608132  0.0227907365085388
  0.2316086455310326  0.7303595450631607  0.0045727599868354
  0.2340028384655879  0.2487610288899301  0.5139075266995881
  0.2512492094717600  0.2490498287284365  0.2492809947966611
  0.2452046768354449  0.0083680795488706  0.0086548458971265
  0.9951893759424325  0.2406972084659571  0.0011834782121217
  0.7455282825759012  0.2397602838798761  0.2479903621360895
  0.7566555519472733  0.0039547453373833  0.0074176814140497
  0.5022670279821272  0.0091712604729191  0.2483706029130368
  0.0049664486567360  0.4937365475017445  0.2571675161901105
  0.5007771244443996  0.7468717616876158  0.9931821645699797
  0.9991347109482258  0.0025752163037400  0.7575529560893740
  0.7466336747076575  0.2506989685433403  0.7469902829342147
  0.7540215558187325  0.0053420132734928  0.4927601324914239
  0.5008149959519278  0.2555839785209981  0.4987591875345245
  0.5024445779895930  0.0050590615836533  0.7514869010938967
  0.0011059031921526  0.0013792427281495  0.2453069415374882
  0.4973825653299072  0.2588670794729671  0.0017415353228920
  0.2436330648584905  0.7481420810473727  0.2390340717577421
  0.2549243601838420  0.5001908142274883  0.0040676965615760
  0.0054347728475542  0.7528444879900555  0.0011302867500684
  0.7540791855405946  0.7477719423575488  0.2532058252985819
  0.7415749563094162  0.4897226400028599 -0.0030606612896710
  0.4939860022732898  0.4919473653226270  0.2460830504662266
  0.2536916582395085  0.2529590207159244  0.7508976630302686
  0.2458046109515679  0.0095796747479565  0.4934625874878024
  0.0031204818901054  0.2564126468535083  0.5006647285378961
  0.2520788354062976  0.7462881090180103  0.7617793485233209
  0.2522748800800323  0.4874724079384285  0.4961930199798311
  0.9931774232485895  0.7532637845133276  0.4996059324528871
 -0.0002568729177785  0.4985199991685136  0.7439520021163151
  0.7451577760356148  0.7469822461677008  0.7520191356566434
  0.7581837887488699  0.5000473618971724  0.4937765540293984
  0.5035158901298958  0.7484738603689274  0.5065146150744536
  0.5009895185452462  0.5008685157314683  0.7510787858666204
  0.4988544035814039  0.0037388890716207  0.0050904172758996
 -0.0019684644509798  0.4932314498169449  0.0057123950570168
  0.4978012166034176  0.7455548776685105  0.2465980292065772
  0.2453862299849711  0.0006547444918214  0.7577369219660937
  0.4973960402562427  0.0074335401675044  0.4942545319852516
  0.7541561109982077  0.9985009476941282  0.7493638834768559
  0.2486458029711592  0.7484453944143512  0.4975589600080322
 -0.0011398829907835  0.7649058413139659  0.2533574917922273
  0.7292390726933861  0.4900922548526016  0.2430373504658493
  0.0075352447238593  0.0126654685311420  0.4834304843505211
  0.5062809824043893  0.5044614305057308  0.4987740381603689
  0.7426336059311469  0.5077184059801155  0.7513261909578167
  0.7470452414225749  0.7296735796750465  0.5015368655217263
 
  0.00000000E+00  0.00000000E+00  0.00000000E+00
  0.00000000E+00  0.00000000E+00  0.00000000E+00
  0.00000000E+00  0.00000000E+00  0.00000000E+00
  0.00000000E+00  0.00000000E+00  0.00000000E+00
  0.00000000E+00  0.00000000E+00  0.00000000E+00
  0.00000000E+00  0.00000000E+00  0.00000000E+00
  0.00000000E+00  0.00000000E+00  0.00000000E+00
  0.00000000E+00  0.00000000E+00  0.00000000E+00
  0.00000000E+00  0.00000000E+00  0.00000000E+00
  0.00000000E+00  0.00000000E+00  0.00000000E+00
  0.00000000E+00  0.00000000E+00  0.00000000E+00
  0.00000000E+00  0.00000000E+00  0.00000000E+00
  0.00000000E+00  0.00000000E+00  0.00000000E+00
  0.00000000E+00  0.00000000E+00  0.00000000E+00
  0.00000000E+00  0.00000000E+00  0.00000000E+00
  0.00000000E+00  0.00000000E+00  0.00000000E+00
  0.00000000E+00  0.00000000E+00  0.00000000E+00
  0.00000000E+00  0.00000000E+00  0.00000000E+00
  0.00000000E+00  0.00000000E+00  0.00000000E+00
  0.00000000E+00  0.00000000E+00  0.00000000E+00
  0.00000000E+00  0.00000000E+00  0.00000000E+00
  0.00000000E+00  0.00000000E+00  0.00000000E+00
  0.00000000E+00  0.00000000E+00  0.00000000E+00
  0.00000000E+00  0.00000000E+00  0.00000000E+00
  0.00000000E+00  0.00000000E+00  0.00000000E+00
  0.00000000E+00  0.00000000E+00  0.00000000E+00
  0.00000000E+00  0.00000000E+00  0.00000000E+00
  0.00000000E+00  0.00000000E+00  0.00000000E+00
  0.00000000E+00  0.00000000E+00  0.00000000E+00
  0.00000000E+00  0.00000000E+00  0.00000000E+00
  0.00000000E+00  0.00000000E+00  0.00000000E+00
  0.00000000E+00  0.00000000E+00  0.00000000E+00
  0.00000000E+00  0.00000000E+00  0.00000000E+00
  0.00000000E+00  0.00000000E+00  0.00000000E+00
  0.00000000E+00  0.00000000E+00  0.00000000E+00
  0.00000000E+00  0.00000000E+00  0.00000000E+00
  0.00000000E+00  0.00000000E+00  0.00000000E+00
  0.00000000E+00  0.00000000E+00  0.00000000E+00
  0.00000000E+00  0.00000000E+00  0.00000000E+00
  0.00000000E+00  0.00000000E+00  0.00000000E+00
  0.00000000E+00  0.00000000E+00  0.00000000E+00
  0.00000000E+00  0.00000000E+00  0.00000000E+00
  0.00000000E+00  0.00000000E+00  0.00000000E+00
  0.00000000E+00  0.00000000E+00  0.00000000E+00
  0.00000000E+00  0.00000000E+00  0.00000000E+00
  0.00000000E+00  0.00000000E+00  0.00000000E+00
  0.00000000E+00  0.00000000E+00  0.00000000E+00
  0.00000000E+00  0.00000000E+00  0.00000000E+00
  0.00000000E+00  0.00000000E+00  0.00000000E+00
  0.00000000E+00  0.00000000E+00  0.00000000E+00
  0.00000000E+00  0.00000000E+00  0.00000000E+00
  0.00000000E+00  0.00000000E+00  0.00000000E+00
  0.00000000E+00  0.00000000E+00  0.00000000E+00
  0.00000000E+00  0.00000000E+00  0.00000000E+00
  0.00000000E+00  0.00000000E+00  0.00000000E+00
  0.00000000E+00  0.00000000E+00  0.00000000E+00
  0.00000000E+00  0.00000000E+00  0.00000000E+00
  0.00000000E+00  0.00000000E+00  0.00000000E+00
  0.00000000E+00  0.00000000E+00  0.00000000E+00
  0.00000000E+00  0.00000000E+00  0.00000000E+00
  0.00000000E+00  0.00000000E+00  0.00000000E+00
  0.00000000E+00  0.00000000E+00  0.00000000E+00
  0.00000000E+00  0.00000000E+00  0.00000000E+00
  0.00000000E+00  0.00000000E+00  0.00000000E+00
