117-ZrHfCrMoW                           
   1.00000000000000     
     8.8835632961831656    0.0083299743810833   -0.0074027888240101
     0.0140856567280748    8.9473588287069514   -0.0150077071149542
     0.0245251619668588   -0.0304162162795980    8.9305324672845696
   Hf   W    Zr   N    C    Cr   Mo
     7     6     7    13    19     6     6
Direct
  0.9963294874514919  0.9952536528357472  0.9924305066217034
  0.2611412421201241  0.9958260463270744  0.2538982463529431
  0.2366343931273890  0.5016546627678097  0.2425437460386881
  0.5040177033185345  0.5041049522012935  0.9975296205488886
  0.5101033633845233  0.2463659767504671  0.7419881645454572
  0.9958504613607679  0.5038102868064357  0.4992418810978941
  0.4998885168146177  0.7561654763853689  0.7440217017966461
  0.9930352494110537  0.2274052089894474  0.2685906416410390
  0.7644153451875328  0.7423571304110756  0.0006519335997292
  0.0131683847422241  0.2456807765096255  0.7311623930880015
  0.7526263840233188  0.2626253476314893  0.4905895852151122
  0.9999554254601962  0.7370079500436320  0.7584691887734089
  0.2538336099185570  0.4944578197885615  0.7512167815779756
  0.2468233435760675  0.2442987035740923  0.9921368133362858
  0.5043405006346746  0.2531501086491066  0.2489600870620969
  0.7379479117995522  0.9908299484834130  0.2681099913639730
  0.7558153826351238  0.2536471237405701  0.9910589695845454
  0.2551206801825091  0.7567735749119189  0.9990038740085095
  0.2564662252816506  0.2518233777810742  0.5020698971839774
  0.2465926874997719  0.7508490823863647  0.5021807810750134
  0.2441647358767805  0.2482436372255872  0.2488080052196478
  0.2468946703148314  0.0008339127504464  0.0046833487083857
  0.0005364761249848  0.2405267228417750  0.0093635434457241
  0.7560334698316813  0.2477540176900529  0.2502774888863133
  0.7459633583031182  0.9911781068575676 -0.0011968567675114
  0.4978502438245375  0.9983845904296762  0.2676665691507409
  0.9924917986425654  0.4798582120438766  0.2523045738860071
  0.5113691483358355  0.7601762625330223 -0.0075799288006743
  0.9807686457324432  0.0030970782485574  0.7465920987890919
  0.7597404836889926  0.2587280019245168  0.7420972805821076
  0.7547824084797611  0.0240221027988749  0.5082825598835951
  0.5112136433652706  0.2503625498608966  0.4991590149077381
  0.5323000006822861  0.0000221672518747  0.7402733552741035
 -0.0006900771476115 -0.0009609732418449  0.2537082627666893
  0.5046460113967719  0.2416745997646647 -0.0057520353025658
  0.2562297234618268  0.7498448659239585  0.2507735949012255
  0.2415165327562626  0.5015128936145337  0.9915021754730546
  0.0008730417535846  0.7435885532452438  0.0054216951067719
  0.7414014520388509  0.7380763438048186  0.2439451494943138
  0.7632816766671344  0.5052869771108650  0.0103254944141435
  0.4908363832772947  0.5076680290066993  0.2468786719507597
  0.2539873633644025  0.2462162446849557  0.7472908230832527
  0.2557118569715963  0.0005447928486160  0.5148467155288722
  0.9966961218080346  0.2505031130113533  0.5024769457102395
  0.2422868069525162  0.7546047314740900  0.7506679581507761
  0.2512316780296953  0.5012657280111836  0.5004978658438123
  0.9879539532741389  0.7578956867058885  0.5068223842114943
  0.0008197070952601  0.4927054866982847  0.7570671279598351
  0.7538120150725366  0.7558120541837712  0.7449455607043396
  0.7458740989236510  0.4975219125810788  0.5097617093847439
  0.5051311725764951  0.7637452632647280  0.4900404369528259
  0.4996098165805294  0.5023611392338287  0.7436409000390116
  0.5257143705224845  0.0093501876468672  0.9583125113558663
  0.9886636084104711  0.5253576590250519  0.9747340197355974
  0.5060219262926141  0.7280808863684904  0.2751465868073123
  0.2119156422564924  0.0145710300493425  0.7312551324640318
  0.4752598690050645  0.9907468154076635  0.5229604616798529
  0.7441772210860155  0.9627343061440093  0.7765995331786752
 -0.0047580502363555  0.7726594257975788  0.2515172480550359
  0.7282861636230261  0.5065318896428842  0.2599035399164273
  0.0131361908237398  0.0032500822074452  0.5055161884903449
  0.5033761214860235  0.5118235696326682  0.4872916324566659
  0.7542641795219649  0.5220592741840310  0.7653646090159454
  0.7445184172227018  0.7256926135359617  0.4899513787935072
 
  0.00000000E+00  0.00000000E+00  0.00000000E+00
  0.00000000E+00  0.00000000E+00  0.00000000E+00
  0.00000000E+00  0.00000000E+00  0.00000000E+00
  0.00000000E+00  0.00000000E+00  0.00000000E+00
  0.00000000E+00  0.00000000E+00  0.00000000E+00
  0.00000000E+00  0.00000000E+00  0.00000000E+00
  0.00000000E+00  0.00000000E+00  0.00000000E+00
  0.00000000E+00  0.00000000E+00  0.00000000E+00
  0.00000000E+00  0.00000000E+00  0.00000000E+00
  0.00000000E+00  0.00000000E+00  0.00000000E+00
  0.00000000E+00  0.00000000E+00  0.00000000E+00
  0.00000000E+00  0.00000000E+00  0.00000000E+00
  0.00000000E+00  0.00000000E+00  0.00000000E+00
  0.00000000E+00  0.00000000E+00  0.00000000E+00
  0.00000000E+00  0.00000000E+00  0.00000000E+00
  0.00000000E+00  0.00000000E+00  0.00000000E+00
  0.00000000E+00  0.00000000E+00  0.00000000E+00
  0.00000000E+00  0.00000000E+00  0.00000000E+00
  0.00000000E+00  0.00000000E+00  0.00000000E+00
  0.00000000E+00  0.00000000E+00  0.00000000E+00
  0.00000000E+00  0.00000000E+00  0.00000000E+00
  0.00000000E+00  0.00000000E+00  0.00000000E+00
  0.00000000E+00  0.00000000E+00  0.00000000E+00
  0.00000000E+00  0.00000000E+00  0.00000000E+00
  0.00000000E+00  0.00000000E+00  0.00000000E+00
  0.00000000E+00  0.00000000E+00  0.00000000E+00
  0.00000000E+00  0.00000000E+00  0.00000000E+00
  0.00000000E+00  0.00000000E+00  0.00000000E+00
  0.00000000E+00  0.00000000E+00  0.00000000E+00
  0.00000000E+00  0.00000000E+00  0.00000000E+00
  0.00000000E+00  0.00000000E+00  0.00000000E+00
  0.00000000E+00  0.00000000E+00  0.00000000E+00
  0.00000000E+00  0.00000000E+00  0.00000000E+00
  0.00000000E+00  0.00000000E+00  0.00000000E+00
  0.00000000E+00  0.00000000E+00  0.00000000E+00
  0.00000000E+00  0.00000000E+00  0.00000000E+00
  0.00000000E+00  0.00000000E+00  0.00000000E+00
  0.00000000E+00  0.00000000E+00  0.00000000E+00
  0.00000000E+00  0.00000000E+00  0.00000000E+00
  0.00000000E+00  0.00000000E+00  0.00000000E+00
  0.00000000E+00  0.00000000E+00  0.00000000E+00
  0.00000000E+00  0.00000000E+00  0.00000000E+00
  0.00000000E+00  0.00000000E+00  0.00000000E+00
  0.00000000E+00  0.00000000E+00  0.00000000E+00
  0.00000000E+00  0.00000000E+00  0.00000000E+00
  0.00000000E+00  0.00000000E+00  0.00000000E+00
  0.00000000E+00  0.00000000E+00  0.00000000E+00
  0.00000000E+00  0.00000000E+00  0.00000000E+00
  0.00000000E+00  0.00000000E+00  0.00000000E+00
  0.00000000E+00  0.00000000E+00  0.00000000E+00
  0.00000000E+00  0.00000000E+00  0.00000000E+00
  0.00000000E+00  0.00000000E+00  0.00000000E+00
  0.00000000E+00  0.00000000E+00  0.00000000E+00
  0.00000000E+00  0.00000000E+00  0.00000000E+00
  0.00000000E+00  0.00000000E+00  0.00000000E+00
  0.00000000E+00  0.00000000E+00  0.00000000E+00
  0.00000000E+00  0.00000000E+00  0.00000000E+00
  0.00000000E+00  0.00000000E+00  0.00000000E+00
  0.00000000E+00  0.00000000E+00  0.00000000E+00
  0.00000000E+00  0.00000000E+00  0.00000000E+00
  0.00000000E+00  0.00000000E+00  0.00000000E+00
  0.00000000E+00  0.00000000E+00  0.00000000E+00
  0.00000000E+00  0.00000000E+00  0.00000000E+00
  0.00000000E+00  0.00000000E+00  0.00000000E+00
