SYSTEM=HEBCN
ISTART=0
ICHARG=2
PREC=Normal
LREAL=.F.
IBRION=-1
ISIF=2
NSW=0
POTIM=0.5
EDIFFG=-0.01
ENCUT=400
NELM=60
EDIFF=1E-5
LCHARG=.T.
LWAVE=.T.
ISMEAR=0
SIGMA=0.1
ALGO=Fast
