114-TiVCrMoW                            
   1.00000000000000     
     8.5431265097435265    0.0084931131897977   -0.0202207447265352
     0.0140758068351630    8.5179532805478502   -0.0029296026339292
     0.0105274334423102   -0.0178168077337937    8.5662159347498914
   V    W    Ti   N    C    Cr   Mo
     7     6     7    13    19     6     6
Direct
  0.0068765312628632  0.9852050070584353  0.0177038180028802
  0.2594480528564460  0.9830815430495956  0.2555016151637042
  0.2665279089321941  0.5167496224678263  0.2408851877742975
  0.4995870514994463  0.4811347533341412  0.0001280047564508
  0.4838210813240421  0.2421859145729486  0.7573622334362055
  0.0141497936552580  0.5015446452625321  0.5179908615565582
  0.5016087017354273  0.7469974883733176  0.7363479810366370
 -0.0155537814797570  0.2549054667674678  0.2617522773741339
  0.7576155818652863  0.7495309997053384 -0.0004388744219259
  0.0168364862827613  0.2388059503812140  0.7413790121167545
  0.7554540967126209  0.2603435437823012  0.4958087286198385
  0.0025656101508579  0.7531824636942863  0.7510549380343210
  0.2549034911427287  0.5055601470086464  0.7580303734887137
  0.2457625844263406  0.2446211859681651  0.0044688084761026
  0.4985066603279494  0.2457817215254603  0.2478744932192212
  0.7400753464274513  0.9927400130269683  0.2566226972174930
  0.7501590480844564  0.2444166120226353  0.9888062707093034
  0.2718344116588321  0.7590535134851158 -0.0003709256686079
  0.2574515710188551  0.2489606721600143  0.4977728896568508
  0.2510248338313467  0.7513831321602087  0.5011645702893669
  0.2484134363619036  0.2502659845645105  0.2510736764113824
  0.2528918340328797  0.0010222705265091  0.0044473854224515
 -0.0009168366084247  0.2415892316628080  0.0026888645081743
  0.7397789781057941  0.2376732424636978  0.2446221153629762
  0.7497471053515379 -0.0006482802573560  0.0015420895997020
  0.4957322413692302  0.9966954982823621  0.2363971888980513
  0.0109603242800598  0.4931697646929303  0.2449344053036202
  0.5064811977981992  0.7552578974858273 -0.0072770829852258
  0.9907624175087061 -0.0001443960244633  0.7633899349817036
  0.7489646519093617  0.2319601767115219  0.7444567335819857
  0.7435535348641463  0.0054242387755743  0.4980133620409309
  0.5033203057733695  0.2386743734330859  0.5018882564399686
  0.4891152292045363  0.0004159961912374  0.7571180181686908
  0.0044319333084930  0.0025530655712944  0.2499328310080462
  0.4986902089721491  0.2504051739593835 -0.0015072440627350
  0.2560110595678939  0.7504196001643687  0.2504206193152063
  0.2498619150561124  0.5030966375687312  0.0047547381939113
  0.0128923551618246  0.7523088399256180  0.0007098561144128
  0.7348007663428150  0.7477750545043403  0.2453397657356780
  0.7586081702207682  0.4959378607090146  0.0012272261203514
  0.4961909007623218  0.5083304935515113  0.2439596919559280
  0.2551136296957534  0.2429797882262413  0.7512108816698354
  0.2604268259058127 -0.0011267094318026  0.5052265632334696
  0.0082525857954121  0.2587772152116029  0.5020008318384966
  0.2573699167419147  0.7585246487108808  0.7500757081710615
  0.2491585630728932  0.5010644987693542  0.4961548232696449
  0.0037133765930222  0.7467395897327173  0.5020771163863315
  0.9991507989643398  0.4950013207595712  0.7531847393174770
  0.7458849785137944  0.7665271996082311  0.7454355707175828
  0.7601887545306367  0.4977202602921176  0.5002527673828067
  0.4989415012623414  0.7609262973146482  0.5005727196642031
  0.4989818141521274  0.4979852281553655  0.7561212003604576
  0.5088372998425091  0.0237407275278352  0.9849104381210518
  0.0024336385346052  0.5293748789538675  0.9780130462078389
  0.4924703571752400  0.7664488492143259  0.2761772653569526
  0.2268071642172053 -0.0032662641395391  0.7347815456395521
  0.4802691469796527 -0.0041464751328426  0.4701672263652550
  0.7075350582701556  0.9922454333501926  0.7792948721533638
 -0.0045053749901127  0.7486337429642813  0.2492054026650874
  0.7379260653248427  0.4981272002477575  0.2431646740518211
  0.0115667121641752  0.0046309637883550  0.4972987446764803
  0.4985877328319558  0.5041154450301244  0.5013229994782284
  0.7402640151128851  0.5119746548940651  0.7592221630401593
  0.7516790242497360  0.7346341366835283  0.4961514432793508
 
  0.00000000E+00  0.00000000E+00  0.00000000E+00
  0.00000000E+00  0.00000000E+00  0.00000000E+00
  0.00000000E+00  0.00000000E+00  0.00000000E+00
  0.00000000E+00  0.00000000E+00  0.00000000E+00
  0.00000000E+00  0.00000000E+00  0.00000000E+00
  0.00000000E+00  0.00000000E+00  0.00000000E+00
  0.00000000E+00  0.00000000E+00  0.00000000E+00
  0.00000000E+00  0.00000000E+00  0.00000000E+00
  0.00000000E+00  0.00000000E+00  0.00000000E+00
  0.00000000E+00  0.00000000E+00  0.00000000E+00
  0.00000000E+00  0.00000000E+00  0.00000000E+00
  0.00000000E+00  0.00000000E+00  0.00000000E+00
  0.00000000E+00  0.00000000E+00  0.00000000E+00
  0.00000000E+00  0.00000000E+00  0.00000000E+00
  0.00000000E+00  0.00000000E+00  0.00000000E+00
  0.00000000E+00  0.00000000E+00  0.00000000E+00
  0.00000000E+00  0.00000000E+00  0.00000000E+00
  0.00000000E+00  0.00000000E+00  0.00000000E+00
  0.00000000E+00  0.00000000E+00  0.00000000E+00
  0.00000000E+00  0.00000000E+00  0.00000000E+00
  0.00000000E+00  0.00000000E+00  0.00000000E+00
  0.00000000E+00  0.00000000E+00  0.00000000E+00
  0.00000000E+00  0.00000000E+00  0.00000000E+00
  0.00000000E+00  0.00000000E+00  0.00000000E+00
  0.00000000E+00  0.00000000E+00  0.00000000E+00
  0.00000000E+00  0.00000000E+00  0.00000000E+00
  0.00000000E+00  0.00000000E+00  0.00000000E+00
  0.00000000E+00  0.00000000E+00  0.00000000E+00
  0.00000000E+00  0.00000000E+00  0.00000000E+00
  0.00000000E+00  0.00000000E+00  0.00000000E+00
  0.00000000E+00  0.00000000E+00  0.00000000E+00
  0.00000000E+00  0.00000000E+00  0.00000000E+00
  0.00000000E+00  0.00000000E+00  0.00000000E+00
  0.00000000E+00  0.00000000E+00  0.00000000E+00
  0.00000000E+00  0.00000000E+00  0.00000000E+00
  0.00000000E+00  0.00000000E+00  0.00000000E+00
  0.00000000E+00  0.00000000E+00  0.00000000E+00
  0.00000000E+00  0.00000000E+00  0.00000000E+00
  0.00000000E+00  0.00000000E+00  0.00000000E+00
  0.00000000E+00  0.00000000E+00  0.00000000E+00
  0.00000000E+00  0.00000000E+00  0.00000000E+00
  0.00000000E+00  0.00000000E+00  0.00000000E+00
  0.00000000E+00  0.00000000E+00  0.00000000E+00
  0.00000000E+00  0.00000000E+00  0.00000000E+00
  0.00000000E+00  0.00000000E+00  0.00000000E+00
  0.00000000E+00  0.00000000E+00  0.00000000E+00
  0.00000000E+00  0.00000000E+00  0.00000000E+00
  0.00000000E+00  0.00000000E+00  0.00000000E+00
  0.00000000E+00  0.00000000E+00  0.00000000E+00
  0.00000000E+00  0.00000000E+00  0.00000000E+00
  0.00000000E+00  0.00000000E+00  0.00000000E+00
  0.00000000E+00  0.00000000E+00  0.00000000E+00
  0.00000000E+00  0.00000000E+00  0.00000000E+00
  0.00000000E+00  0.00000000E+00  0.00000000E+00
  0.00000000E+00  0.00000000E+00  0.00000000E+00
  0.00000000E+00  0.00000000E+00  0.00000000E+00
  0.00000000E+00  0.00000000E+00  0.00000000E+00
  0.00000000E+00  0.00000000E+00  0.00000000E+00
  0.00000000E+00  0.00000000E+00  0.00000000E+00
  0.00000000E+00  0.00000000E+00  0.00000000E+00
  0.00000000E+00  0.00000000E+00  0.00000000E+00
  0.00000000E+00  0.00000000E+00  0.00000000E+00
  0.00000000E+00  0.00000000E+00  0.00000000E+00
  0.00000000E+00  0.00000000E+00  0.00000000E+00
